c description: Graph 3-Colorability of <cnfgen.graphs.Graph object at 0x77b61cd42f90>
c generator: CNFgen (0.9.5)
c copyright: (C) 2012-2026 Massimo Lauria <massimo.lauria@uniroma1.it>
c url: https://massimolauria.net/cnfgen
c command line: cnfgen kcolor 3 gnm 100 235
c
p cnf 300 1105
1 2 3 0
4 5 6 0
7 8 9 0
10 11 12 0
13 14 15 0
16 17 18 0
19 20 21 0
22 23 24 0
25 26 27 0
28 29 30 0
31 32 33 0
34 35 36 0
37 38 39 0
40 41 42 0
43 44 45 0
46 47 48 0
49 50 51 0
52 53 54 0
55 56 57 0
58 59 60 0
61 62 63 0
64 65 66 0
67 68 69 0
70 71 72 0
73 74 75 0
76 77 78 0
79 80 81 0
82 83 84 0
85 86 87 0
88 89 90 0
91 92 93 0
94 95 96 0
97 98 99 0
100 101 102 0
103 104 105 0
106 107 108 0
109 110 111 0
112 113 114 0
115 116 117 0
118 119 120 0
121 122 123 0
124 125 126 0
127 128 129 0
130 131 132 0
133 134 135 0
136 137 138 0
139 140 141 0
142 143 144 0
145 146 147 0
148 149 150 0
151 152 153 0
154 155 156 0
157 158 159 0
160 161 162 0
163 164 165 0
166 167 168 0
169 170 171 0
172 173 174 0
175 176 177 0
178 179 180 0
181 182 183 0
184 185 186 0
187 188 189 0
190 191 192 0
193 194 195 0
196 197 198 0
199 200 201 0
202 203 204 0
205 206 207 0
208 209 210 0
211 212 213 0
214 215 216 0
217 218 219 0
220 221 222 0
223 224 225 0
226 227 228 0
229 230 231 0
232 233 234 0
235 236 237 0
238 239 240 0
241 242 243 0
244 245 246 0
247 248 249 0
250 251 252 0
253 254 255 0
256 257 258 0
259 260 261 0
262 263 264 0
265 266 267 0
268 269 270 0
271 272 273 0
274 275 276 0
277 278 279 0
280 281 282 0
283 284 285 0
286 287 288 0
289 290 291 0
292 293 294 0
295 296 297 0
298 299 300 0
-1 -2 0
-1 -3 0
-2 -3 0
-4 -5 0
-4 -6 0
-5 -6 0
-7 -8 0
-7 -9 0
-8 -9 0
-10 -11 0
-10 -12 0
-11 -12 0
-13 -14 0
-13 -15 0
-14 -15 0
-16 -17 0
-16 -18 0
-17 -18 0
-19 -20 0
-19 -21 0
-20 -21 0
-22 -23 0
-22 -24 0
-23 -24 0
-25 -26 0
-25 -27 0
-26 -27 0
-28 -29 0
-28 -30 0
-29 -30 0
-31 -32 0
-31 -33 0
-32 -33 0
-34 -35 0
-34 -36 0
-35 -36 0
-37 -38 0
-37 -39 0
-38 -39 0
-40 -41 0
-40 -42 0
-41 -42 0
-43 -44 0
-43 -45 0
-44 -45 0
-46 -47 0
-46 -48 0
-47 -48 0
-49 -50 0
-49 -51 0
-50 -51 0
-52 -53 0
-52 -54 0
-53 -54 0
-55 -56 0
-55 -57 0
-56 -57 0
-58 -59 0
-58 -60 0
-59 -60 0
-61 -62 0
-61 -63 0
-62 -63 0
-64 -65 0
-64 -66 0
-65 -66 0
-67 -68 0
-67 -69 0
-68 -69 0
-70 -71 0
-70 -72 0
-71 -72 0
-73 -74 0
-73 -75 0
-74 -75 0
-76 -77 0
-76 -78 0
-77 -78 0
-79 -80 0
-79 -81 0
-80 -81 0
-82 -83 0
-82 -84 0
-83 -84 0
-85 -86 0
-85 -87 0
-86 -87 0
-88 -89 0
-88 -90 0
-89 -90 0
-91 -92 0
-91 -93 0
-92 -93 0
-94 -95 0
-94 -96 0
-95 -96 0
-97 -98 0
-97 -99 0
-98 -99 0
-100 -101 0
-100 -102 0
-101 -102 0
-103 -104 0
-103 -105 0
-104 -105 0
-106 -107 0
-106 -108 0
-107 -108 0
-109 -110 0
-109 -111 0
-110 -111 0
-112 -113 0
-112 -114 0
-113 -114 0
-115 -116 0
-115 -117 0
-116 -117 0
-118 -119 0
-118 -120 0
-119 -120 0
-121 -122 0
-121 -123 0
-122 -123 0
-124 -125 0
-124 -126 0
-125 -126 0
-127 -128 0
-127 -129 0
-128 -129 0
-130 -131 0
-130 -132 0
-131 -132 0
-133 -134 0
-133 -135 0
-134 -135 0
-136 -137 0
-136 -138 0
-137 -138 0
-139 -140 0
-139 -141 0
-140 -141 0
-142 -143 0
-142 -144 0
-143 -144 0
-145 -146 0
-145 -147 0
-146 -147 0
-148 -149 0
-148 -150 0
-149 -150 0
-151 -152 0
-151 -153 0
-152 -153 0
-154 -155 0
-154 -156 0
-155 -156 0
-157 -158 0
-157 -159 0
-158 -159 0
-160 -161 0
-160 -162 0
-161 -162 0
-163 -164 0
-163 -165 0
-164 -165 0
-166 -167 0
-166 -168 0
-167 -168 0
-169 -170 0
-169 -171 0
-170 -171 0
-172 -173 0
-172 -174 0
-173 -174 0
-175 -176 0
-175 -177 0
-176 -177 0
-178 -179 0
-178 -180 0
-179 -180 0
-181 -182 0
-181 -183 0
-182 -183 0
-184 -185 0
-184 -186 0
-185 -186 0
-187 -188 0
-187 -189 0
-188 -189 0
-190 -191 0
-190 -192 0
-191 -192 0
-193 -194 0
-193 -195 0
-194 -195 0
-196 -197 0
-196 -198 0
-197 -198 0
-199 -200 0
-199 -201 0
-200 -201 0
-202 -203 0
-202 -204 0
-203 -204 0
-205 -206 0
-205 -207 0
-206 -207 0
-208 -209 0
-208 -210 0
-209 -210 0
-211 -212 0
-211 -213 0
-212 -213 0
-214 -215 0
-214 -216 0
-215 -216 0
-217 -218 0
-217 -219 0
-218 -219 0
-220 -221 0
-220 -222 0
-221 -222 0
-223 -224 0
-223 -225 0
-224 -225 0
-226 -227 0
-226 -228 0
-227 -228 0
-229 -230 0
-229 -231 0
-230 -231 0
-232 -233 0
-232 -234 0
-233 -234 0
-235 -236 0
-235 -237 0
-236 -237 0
-238 -239 0
-238 -240 0
-239 -240 0
-241 -242 0
-241 -243 0
-242 -243 0
-244 -245 0
-244 -246 0
-245 -246 0
-247 -248 0
-247 -249 0
-248 -249 0
-250 -251 0
-250 -252 0
-251 -252 0
-253 -254 0
-253 -255 0
-254 -255 0
-256 -257 0
-256 -258 0
-257 -258 0
-259 -260 0
-259 -261 0
-260 -261 0
-262 -263 0
-262 -264 0
-263 -264 0
-265 -266 0
-265 -267 0
-266 -267 0
-268 -269 0
-268 -270 0
-269 -270 0
-271 -272 0
-271 -273 0
-272 -273 0
-274 -275 0
-274 -276 0
-275 -276 0
-277 -278 0
-277 -279 0
-278 -279 0
-280 -281 0
-280 -282 0
-281 -282 0
-283 -284 0
-283 -285 0
-284 -285 0
-286 -287 0
-286 -288 0
-287 -288 0
-289 -290 0
-289 -291 0
-290 -291 0
-292 -293 0
-292 -294 0
-293 -294 0
-295 -296 0
-295 -297 0
-296 -297 0
-298 -299 0
-298 -300 0
-299 -300 0
-1 -157 0
-2 -158 0
-3 -159 0
-1 -163 0
-2 -164 0
-3 -165 0
-1 -247 0
-2 -248 0
-3 -249 0
-1 -268 0
-2 -269 0
-3 -270 0
-4 -58 0
-5 -59 0
-6 -60 0
-4 -88 0
-5 -89 0
-6 -90 0
-4 -253 0
-5 -254 0
-6 -255 0
-4 -295 0
-5 -296 0
-6 -297 0
-7 -52 0
-8 -53 0
-9 -54 0
-7 -97 0
-8 -98 0
-9 -99 0
-7 -118 0
-8 -119 0
-9 -120 0
-7 -229 0
-8 -230 0
-9 -231 0
-7 -289 0
-8 -290 0
-9 -291 0
-10 -55 0
-11 -56 0
-12 -57 0
-10 -76 0
-11 -77 0
-12 -78 0
-10 -121 0
-11 -122 0
-12 -123 0
-10 -172 0
-11 -173 0
-12 -174 0
-10 -196 0
-11 -197 0
-12 -198 0
-10 -214 0
-11 -215 0
-12 -216 0
-10 -220 0
-11 -221 0
-12 -222 0
-10 -292 0
-11 -293 0
-12 -294 0
-10 -298 0
-11 -299 0
-12 -300 0
-13 -136 0
-14 -137 0
-15 -138 0
-13 -157 0
-14 -158 0
-15 -159 0
-13 -229 0
-14 -230 0
-15 -231 0
-13 -280 0
-14 -281 0
-15 -282 0
-16 -58 0
-17 -59 0
-18 -60 0
-16 -76 0
-17 -77 0
-18 -78 0
-16 -220 0
-17 -221 0
-18 -222 0
-19 -34 0
-20 -35 0
-21 -36 0
-19 -40 0
-20 -41 0
-21 -42 0
-19 -88 0
-20 -89 0
-21 -90 0
-19 -178 0
-20 -179 0
-21 -180 0
-19 -205 0
-20 -206 0
-21 -207 0
-19 -265 0
-20 -266 0
-21 -267 0
-22 -124 0
-23 -125 0
-24 -126 0
-22 -190 0
-23 -191 0
-24 -192 0
-22 -226 0
-23 -227 0
-24 -228 0
-22 -235 0
-23 -236 0
-24 -237 0
-22 -265 0
-23 -266 0
-24 -267 0
-22 -292 0
-23 -293 0
-24 -294 0
-22 -295 0
-23 -296 0
-24 -297 0
-25 -73 0
-26 -74 0
-27 -75 0
-25 -139 0
-26 -140 0
-27 -141 0
-25 -160 0
-26 -161 0
-27 -162 0
-25 -163 0
-26 -164 0
-27 -165 0
-25 -244 0
-26 -245 0
-27 -246 0
-25 -268 0
-26 -269 0
-27 -270 0
-25 -274 0
-26 -275 0
-27 -276 0
-25 -280 0
-26 -281 0
-27 -282 0
-28 -61 0
-29 -62 0
-30 -63 0
-28 -64 0
-29 -65 0
-30 -66 0
-28 -211 0
-29 -212 0
-30 -213 0
-31 -46 0
-32 -47 0
-33 -48 0
-31 -70 0
-32 -71 0
-33 -72 0
-31 -79 0
-32 -80 0
-33 -81 0
-31 -82 0
-32 -83 0
-33 -84 0
-31 -151 0
-32 -152 0
-33 -153 0
-31 -214 0
-32 -215 0
-33 -216 0
-31 -265 0
-32 -266 0
-33 -267 0
-34 -49 0
-35 -50 0
-36 -51 0
-34 -94 0
-35 -95 0
-36 -96 0
-34 -166 0
-35 -167 0
-36 -168 0
-37 -40 0
-38 -41 0
-39 -42 0
-37 -58 0
-38 -59 0
-39 -60 0
-37 -103 0
-38 -104 0
-39 -105 0
-40 -82 0
-41 -83 0
-42 -84 0
-40 -175 0
-41 -176 0
-42 -177 0
-40 -229 0
-41 -230 0
-42 -231 0
-40 -268 0
-41 -269 0
-42 -270 0
-43 -121 0
-44 -122 0
-45 -123 0
-43 -133 0
-44 -134 0
-45 -135 0
-43 -142 0
-44 -143 0
-45 -144 0
-43 -175 0
-44 -176 0
-45 -177 0
-43 -202 0
-44 -203 0
-45 -204 0
-43 -250 0
-44 -251 0
-45 -252 0
-46 -196 0
-47 -197 0
-48 -198 0
-46 -229 0
-47 -230 0
-48 -231 0
-46 -280 0
-47 -281 0
-48 -282 0
-46 -289 0
-47 -290 0
-48 -291 0
-49 -91 0
-50 -92 0
-51 -93 0
-49 -298 0
-50 -299 0
-51 -300 0
-52 -76 0
-53 -77 0
-54 -78 0
-52 -184 0
-53 -185 0
-54 -186 0
-52 -208 0
-53 -209 0
-54 -210 0
-52 -235 0
-53 -236 0
-54 -237 0
-52 -298 0
-53 -299 0
-54 -300 0
-55 -100 0
-56 -101 0
-57 -102 0
-55 -124 0
-56 -125 0
-57 -126 0
-55 -172 0
-56 -173 0
-57 -174 0
-55 -211 0
-56 -212 0
-57 -213 0
-55 -229 0
-56 -230 0
-57 -231 0
-58 -262 0
-59 -263 0
-60 -264 0
-61 -118 0
-62 -119 0
-63 -120 0
-61 -154 0
-62 -155 0
-63 -156 0
-64 -70 0
-65 -71 0
-66 -72 0
-64 -121 0
-65 -122 0
-66 -123 0
-64 -127 0
-65 -128 0
-66 -129 0
-67 -124 0
-68 -125 0
-69 -126 0
-67 -136 0
-68 -137 0
-69 -138 0
-67 -190 0
-68 -191 0
-69 -192 0
-67 -289 0
-68 -290 0
-69 -291 0
-70 -115 0
-71 -116 0
-72 -117 0
-70 -190 0
-71 -191 0
-72 -192 0
-70 -268 0
-71 -269 0
-72 -270 0
-73 -100 0
-74 -101 0
-75 -102 0
-73 -145 0
-74 -146 0
-75 -147 0
-73 -154 0
-74 -155 0
-75 -156 0
-73 -226 0
-74 -227 0
-75 -228 0
-76 -139 0
-77 -140 0
-78 -141 0
-76 -274 0
-77 -275 0
-78 -276 0
-79 -145 0
-80 -146 0
-81 -147 0
-79 -190 0
-80 -191 0
-81 -192 0
-85 -199 0
-86 -200 0
-87 -201 0
-85 -223 0
-86 -224 0
-87 -225 0
-88 -217 0
-89 -218 0
-90 -219 0
-88 -274 0
-89 -275 0
-90 -276 0
-88 -280 0
-89 -281 0
-90 -282 0
-88 -298 0
-89 -299 0
-90 -300 0
-91 -115 0
-92 -116 0
-93 -117 0
-91 -124 0
-92 -125 0
-93 -126 0
-91 -148 0
-92 -149 0
-93 -150 0
-91 -268 0
-92 -269 0
-93 -270 0
-94 -109 0
-95 -110 0
-96 -111 0
-94 -181 0
-95 -182 0
-96 -183 0
-94 -190 0
-95 -191 0
-96 -192 0
-94 -202 0
-95 -203 0
-96 -204 0
-94 -253 0
-95 -254 0
-96 -255 0
-94 -286 0
-95 -287 0
-96 -288 0
-97 -130 0
-98 -131 0
-99 -132 0
-97 -139 0
-98 -140 0
-99 -141 0
-97 -253 0
-98 -254 0
-99 -255 0
-100 -253 0
-101 -254 0
-102 -255 0
-100 -265 0
-101 -266 0
-102 -267 0
-103 -136 0
-104 -137 0
-105 -138 0
-103 -259 0
-104 -260 0
-105 -261 0
-106 -172 0
-107 -173 0
-108 -174 0
-106 -280 0
-107 -281 0
-108 -282 0
-109 -160 0
-110 -161 0
-111 -162 0
-109 -193 0
-110 -194 0
-111 -195 0
-112 -160 0
-113 -161 0
-114 -162 0
-112 -253 0
-113 -254 0
-114 -255 0
-112 -271 0
-113 -272 0
-114 -273 0
-115 -172 0
-116 -173 0
-117 -174 0
-115 -223 0
-116 -224 0
-117 -225 0
-118 -151 0
-119 -152 0
-120 -153 0
-118 -166 0
-119 -167 0
-120 -168 0
-118 -226 0
-119 -227 0
-120 -228 0
-121 -157 0
-122 -158 0
-123 -159 0
-121 -163 0
-122 -164 0
-123 -165 0
-121 -211 0
-122 -212 0
-123 -213 0
-124 -259 0
-125 -260 0
-126 -261 0
-127 -139 0
-128 -140 0
-129 -141 0
-127 -145 0
-128 -146 0
-129 -147 0
-127 -235 0
-128 -236 0
-129 -237 0
-127 -247 0
-128 -248 0
-129 -249 0
-130 -136 0
-131 -137 0
-132 -138 0
-130 -205 0
-131 -206 0
-132 -207 0
-130 -223 0
-131 -224 0
-132 -225 0
-130 -250 0
-131 -251 0
-132 -252 0
-130 -265 0
-131 -266 0
-132 -267 0
-133 -208 0
-134 -209 0
-135 -210 0
-133 -292 0
-134 -293 0
-135 -294 0
-136 -238 0
-137 -239 0
-138 -240 0
-136 -244 0
-137 -245 0
-138 -246 0
-136 -289 0
-137 -290 0
-138 -291 0
-139 -229 0
-140 -230 0
-141 -231 0
-139 -265 0
-140 -266 0
-141 -267 0
-142 -289 0
-143 -290 0
-144 -291 0
-145 -187 0
-146 -188 0
-147 -189 0
-145 -217 0
-146 -218 0
-147 -219 0
-148 -268 0
-149 -269 0
-150 -270 0
-148 -292 0
-149 -293 0
-150 -294 0
-151 -154 0
-152 -155 0
-153 -156 0
-151 -193 0
-152 -194 0
-153 -195 0
-157 -193 0
-158 -194 0
-159 -195 0
-157 -265 0
-158 -266 0
-159 -267 0
-157 -286 0
-158 -287 0
-159 -288 0
-160 -178 0
-161 -179 0
-162 -180 0
-163 -172 0
-164 -173 0
-165 -174 0
-163 -175 0
-164 -176 0
-165 -177 0
-163 -208 0
-164 -209 0
-165 -210 0
-163 -220 0
-164 -221 0
-165 -222 0
-163 -250 0
-164 -251 0
-165 -252 0
-166 -193 0
-167 -194 0
-168 -195 0
-166 -277 0
-167 -278 0
-168 -279 0
-169 -205 0
-170 -206 0
-171 -207 0
-169 -214 0
-170 -215 0
-171 -216 0
-169 -226 0
-170 -227 0
-171 -228 0
-169 -286 0
-170 -287 0
-171 -288 0
-172 -220 0
-173 -221 0
-174 -222 0
-172 -289 0
-173 -290 0
-174 -291 0
-178 -193 0
-179 -194 0
-180 -195 0
-178 -202 0
-179 -203 0
-180 -204 0
-178 -214 0
-179 -215 0
-180 -216 0
-178 -256 0
-179 -257 0
-180 -258 0
-184 -217 0
-185 -218 0
-186 -219 0
-187 -214 0
-188 -215 0
-189 -216 0
-187 -229 0
-188 -230 0
-189 -231 0
-187 -238 0
-188 -239 0
-189 -240 0
-187 -289 0
-188 -290 0
-189 -291 0
-193 -208 0
-194 -209 0
-195 -210 0
-193 -244 0
-194 -245 0
-195 -246 0
-193 -265 0
-194 -266 0
-195 -267 0
-196 -199 0
-197 -200 0
-198 -201 0
-196 -229 0
-197 -230 0
-198 -231 0
-196 -256 0
-197 -257 0
-198 -258 0
-196 -295 0
-197 -296 0
-198 -297 0
-199 -223 0
-200 -224 0
-201 -225 0
-202 -238 0
-203 -239 0
-204 -240 0
-202 -274 0
-203 -275 0
-204 -276 0
-205 -265 0
-206 -266 0
-207 -267 0
-208 -214 0
-209 -215 0
-210 -216 0
-208 -232 0
-209 -233 0
-210 -234 0
-208 -274 0
-209 -275 0
-210 -276 0
-211 -283 0
-212 -284 0
-213 -285 0
-217 -229 0
-218 -230 0
-219 -231 0
-217 -241 0
-218 -242 0
-219 -243 0
-220 -241 0
-221 -242 0
-222 -243 0
-223 -286 0
-224 -287 0
-225 -288 0
-226 -244 0
-227 -245 0
-228 -246 0
-226 -277 0
-227 -278 0
-228 -279 0
-226 -298 0
-227 -299 0
-228 -300 0
-235 -277 0
-236 -278 0
-237 -279 0
-241 -268 0
-242 -269 0
-243 -270 0
-244 -259 0
-245 -260 0
-246 -261 0
-244 -274 0
-245 -275 0
-246 -276 0
-247 -265 0
-248 -266 0
-249 -267 0
-247 -286 0
-248 -287 0
-249 -288 0
-250 -295 0
-251 -296 0
-252 -297 0
-250 -298 0
-251 -299 0
-252 -300 0
-256 -286 0
-257 -287 0
-258 -288 0
-259 -268 0
-260 -269 0
-261 -270 0
-262 -295 0
-263 -296 0
-264 -297 0
-274 -283 0
-275 -284 0
-276 -285 0
