c description: Random 3-CNF over 100 variables and 420 clauses
c generator: CNFgen (0.9.5)
c copyright: (C) 2012-2026 Massimo Lauria <massimo.lauria@uniroma1.it>
c url: https://massimolauria.net/cnfgen
c random seed: 42
c command line: cnfgen --seed 42 randkcnf 3 100 420
c
p cnf 100 420
-4 15 82 0
14 -18 95 0
4 12 28 0
-84 90 -92 0
1 -36 -76 0
-20 28 36 0
-13 -46 49 0
59 -69 94 0
-38 71 81 0
-6 30 85 0
-13 -36 49 0
-27 46 48 0
32 -69 -94 0
35 -82 89 0
-5 -30 41 0
-28 73 -92 0
51 -59 83 0
-32 -72 -96 0
-18 29 47 0
15 -20 81 0
-49 -50 77 0
-15 -88 93 0
-21 38 -56 0
23 -65 98 0
20 48 -98 0
-3 -15 63 0
8 31 -73 0
9 69 -98 0
-22 34 71 0
-40 -52 -92 0
16 -29 32 0
30 71 76 0
8 81 91 0
10 -43 -66 0
-17 28 -70 0
13 -25 -53 0
53 55 60 0
44 52 94 0
25 -58 69 0
32 -36 60 0
7 70 84 0
-22 53 -63 0
8 -22 -49 0
-37 55 59 0
8 -28 38 0
7 62 75 0
9 24 -77 0
16 32 -73 0
-73 -75 85 0
41 -86 -92 0
-17 -83 -86 0
-2 10 97 0
-28 65 -69 0
-9 32 -48 0
39 -70 91 0
15 18 -34 0
-27 37 -78 0
33 63 -65 0
-1 6 -36 0
-21 57 95 0
10 -20 89 0
-6 -17 56 0
27 46 -88 0
53 72 100 0
4 -23 -53 0
-32 86 95 0
5 49 -61 0
30 40 45 0
36 -43 -52 0
-52 66 83 0
-23 34 75 0
-45 -56 77 0
-25 50 -74 0
1 -67 -69 0
-9 43 -86 0
-40 -65 -86 0
38 71 -90 0
49 -86 -87 0
-1 39 -71 0
-75 -78 -84 0
-28 57 87 0
-37 66 85 0
29 40 87 0
6 -32 -61 0
-25 -74 -81 0
19 32 -84 0
-23 29 90 0
-16 -18 -59 0
-65 -79 93 0
-58 61 -96 0
-67 99 -100 0
-10 57 -92 0
41 43 70 0
30 50 89 0
-43 -53 54 0
27 -50 -54 0
-1 -39 46 0
-29 -35 63 0
-44 50 -86 0
17 -69 80 0
11 -55 83 0
-7 34 -49 0
-42 -44 -98 0
11 33 -61 0
9 29 84 0
3 26 80 0
15 -61 -86 0
22 48 -99 0
-4 -14 -75 0
10 26 -92 0
16 -77 -88 0
-9 48 -85 0
-14 -56 63 0
-23 -56 -94 0
-56 -76 94 0
12 -36 -58 0
-4 44 -64 0
-28 -34 -46 0
2 67 72 0
53 -63 -93 0
-3 12 -58 0
-32 -40 -89 0
-55 -71 -96 0
33 35 40 0
16 41 96 0
-36 62 95 0
30 -38 47 0
-17 69 91 0
38 -71 90 0
-2 -37 -74 0
-7 -24 44 0
9 52 63 0
20 39 73 0
54 -72 -98 0
-39 -57 76 0
13 79 -95 0
11 21 85 0
-1 -21 -53 0
-5 -30 37 0
30 -34 88 0
29 -70 83 0
-8 -10 -22 0
-16 -60 -89 0
-64 65 70 0
-42 56 95 0
30 -74 87 0
-23 -97 -98 0
-24 56 -75 0
-43 45 53 0
-43 -53 -89 0
-5 71 -98 0
-15 33 -42 0
-7 -25 -53 0
-7 27 -98 0
57 63 90 0
21 -40 91 0
15 29 -60 0
-38 -66 -92 0
32 -59 61 0
66 77 -96 0
-44 54 -99 0
-39 76 -93 0
-45 -62 -69 0
25 -42 90 0
-6 -53 -100 0
50 -84 85 0
-17 65 -76 0
13 59 -68 0
-10 -20 -84 0
51 -80 -89 0
-41 81 92 0
-31 81 88 0
13 -56 98 0
4 -39 89 0
-38 46 48 0
53 68 73 0
11 -49 79 0
-30 -60 -82 0
-2 60 86 0
-45 -57 -76 0
-26 -39 59 0
-31 -49 -74 0
-3 51 85 0
-64 78 -96 0
-25 29 82 0
-6 -81 83 0
47 75 -94 0
42 54 96 0
-47 68 -70 0
-38 62 -96 0
10 -19 -97 0
-2 12 -51 0
-48 -87 -96 0
-14 30 -87 0
29 -79 -83 0
15 53 84 0
15 39 64 0
-48 50 -59 0
-13 -63 84 0
-28 -48 89 0
-13 -47 88 0
25 -36 51 0
28 83 -85 0
17 32 73 0
-28 30 76 0
-17 19 36 0
4 -17 85 0
3 -42 76 0
17 54 -95 0
47 -58 100 0
-6 -79 94 0
-8 52 -62 0
10 -57 92 0
-9 -17 -36 0
-59 65 78 0
71 -84 -99 0
-30 -44 -53 0
-13 -41 -94 0
-20 48 88 0
11 -12 56 0
-8 72 -76 0
-46 86 -97 0
40 46 77 0
29 -62 -85 0
15 -36 98 0
-78 85 89 0
-35 -90 -98 0
-1 19 24 0
4 82 -95 0
44 -54 -59 0
42 93 100 0
21 80 -97 0
-55 -57 -85 0
28 -35 -97 0
-15 -37 87 0
29 51 77 0
28 -39 -99 0
-1 -16 42 0
17 -49 69 0
-6 51 -95 0
-10 -41 -74 0
15 -38 52 0
-59 80 -89 0
-14 32 -56 0
40 -44 96 0
10 66 -82 0
45 83 94 0
19 26 33 0
-23 -81 -99 0
-73 -83 88 0
-9 -57 -61 0
8 -46 -76 0
-5 -8 58 0
-12 -79 83 0
58 -74 -84 0
-8 20 -65 0
11 65 92 0
57 -68 -91 0
-37 50 -53 0
-9 -13 -43 0
78 -85 93 0
-19 -75 -85 0
17 -77 -91 0
17 -43 -83 0
3 40 -47 0
25 63 99 0
10 -13 38 0
20 49 77 0
-6 -57 93 0
-37 57 79 0
-25 -40 -61 0
-37 -99 100 0
-18 26 -78 0
14 -48 71 0
-21 35 -98 0
-12 29 -58 0
-7 51 -65 0
11 -29 48 0
43 84 92 0
37 -61 -90 0
1 -11 79 0
-20 71 -94 0
16 31 -39 0
59 80 -82 0
3 69 -77 0
-1 55 -79 0
-11 24 86 0
-6 -50 -61 0
3 -46 96 0
81 -85 94 0
-6 46 -70 0
62 81 90 0
59 -92 100 0
-6 -26 -41 0
5 -33 -97 0
-7 -84 100 0
-48 -52 -56 0
-24 -64 -89 0
11 -55 94 0
38 42 -70 0
-38 -40 85 0
-45 57 -89 0
36 56 -79 0
47 66 96 0
57 78 87 0
-31 -83 -100 0
5 -73 -78 0
48 57 -98 0
-41 51 84 0
-4 -24 95 0
-34 91 -100 0
26 63 89 0
-23 58 -92 0
45 -86 -91 0
21 -91 92 0
16 -18 26 0
-47 -71 74 0
-9 -12 -79 0
-53 68 99 0
-10 -41 -83 0
17 71 -100 0
8 -16 65 0
21 -42 -91 0
-11 26 -33 0
12 69 79 0
-80 85 93 0
-6 11 -83 0
-4 -80 -82 0
-32 -62 -88 0
8 -10 -89 0
-27 60 -62 0
-41 -92 94 0
48 -66 98 0
-16 35 60 0
-7 -13 38 0
-21 42 74 0
-60 -64 -66 0
-3 12 51 0
7 -46 -75 0
-77 -84 87 0
-14 -18 -56 0
6 47 -52 0
-10 -37 -71 0
79 80 88 0
-44 48 51 0
52 66 78 0
-18 -43 92 0
-18 -66 78 0
-51 -79 -95 0
-39 73 -91 0
-15 -43 87 0
34 61 -77 0
-22 68 81 0
5 74 90 0
41 -54 57 0
-53 65 100 0
-27 -67 -72 0
-23 -41 -59 0
25 -62 -79 0
-29 39 -99 0
-41 -45 62 0
-70 -74 -87 0
19 -38 99 0
-45 -57 84 0
-26 35 69 0
76 79 95 0
29 68 86 0
-43 53 92 0
-1 -21 -71 0
-26 -84 -97 0
8 83 99 0
-5 -23 54 0
5 -38 96 0
-37 43 -59 0
-15 25 -35 0
33 83 -92 0
38 73 -87 0
42 -55 66 0
-18 24 62 0
-31 -34 -50 0
39 -75 -93 0
8 -31 -89 0
-21 52 -88 0
29 48 -79 0
-20 -59 -96 0
69 86 97 0
-58 68 91 0
8 65 71 0
42 57 -67 0
12 -58 66 0
54 -59 -66 0
-3 51 93 0
-6 -10 75 0
-8 9 -70 0
24 -53 -99 0
11 -49 58 0
23 51 69 0
-3 -39 -97 0
-30 32 -59 0
25 93 -98 0
3 79 99 0
-5 13 77 0
-6 52 95 0
8 -97 100 0
-41 74 -94 0
19 -67 -85 0
8 -36 -72 0
-7 -45 -83 0
-20 39 -53 0
29 -31 39 0
53 -54 72 0
27 -33 -43 0
12 69 -93 0
49 78 87 0
76 -93 98 0
2 39 43 0
62 96 -97 0
-31 -42 -71 0
-46 -69 -84 0
60 -64 -66 0
