c description: Random 3-CNF over 250 variables and 1065 clauses
c generator: CNFgen (0.9.5)
c copyright: (C) 2012-2026 Massimo Lauria <massimo.lauria@uniroma1.it>
c url: https://massimolauria.net/cnfgen
c command line: cnfgen randkcnf 3 250 1065
c
p cnf 250 1065
38 142 -206 0
174 195 -197 0
3 -178 -223 0
58 -147 217 0
41 70 238 0
-5 225 -226 0
92 137 -217 0
64 76 -163 0
-14 -179 219 0
-12 -23 -74 0
-54 -65 -118 0
-179 -181 -198 0
-7 -54 -120 0
6 -78 150 0
189 228 233 0
-24 155 -238 0
32 225 237 0
-114 -164 -180 0
-174 -219 -231 0
-12 80 147 0
31 -59 -185 0
-5 -137 -209 0
-82 178 -212 0
102 -111 -151 0
121 -190 -237 0
-60 179 227 0
37 85 -177 0
-71 88 183 0
77 120 182 0
77 -118 -129 0
127 -139 -175 0
125 169 -217 0
17 -20 26 0
-6 -52 -86 0
46 99 -120 0
66 85 -201 0
101 -168 -175 0
69 89 140 0
8 -236 -237 0
-99 -220 250 0
166 189 205 0
28 125 229 0
-62 124 212 0
40 -71 -177 0
-72 90 -208 0
33 -93 132 0
152 -181 182 0
45 137 -190 0
74 153 -167 0
77 131 -159 0
4 19 -40 0
15 133 -179 0
-63 -101 203 0
-18 -113 219 0
113 212 -242 0
8 -124 189 0
160 -202 -205 0
69 -74 -121 0
39 205 249 0
96 -97 250 0
-57 98 199 0
11 -106 -197 0
-78 -105 -159 0
2 -204 207 0
211 233 246 0
-47 188 -227 0
50 157 -176 0
-91 208 -230 0
-17 -70 84 0
-73 -110 231 0
-80 108 140 0
-88 -98 238 0
3 -58 -221 0
29 -189 -213 0
122 -131 -190 0
-3 37 150 0
-66 103 244 0
-1 -51 -224 0
46 206 230 0
86 -115 -237 0
69 163 239 0
36 42 -55 0
-90 180 202 0
86 -132 -235 0
-2 -159 -214 0
-29 78 -106 0
44 132 151 0
-15 57 163 0
142 -171 178 0
29 -79 -195 0
-110 133 199 0
-17 -132 -184 0
-109 221 -240 0
6 84 -92 0
-115 -172 190 0
124 159 228 0
48 104 -246 0
146 -154 -203 0
-45 74 -210 0
-45 -50 -62 0
-13 180 195 0
8 125 -164 0
27 155 -249 0
206 214 248 0
-52 -135 -215 0
120 183 187 0
36 104 139 0
-165 -172 208 0
36 -151 231 0
-46 82 -120 0
-29 156 193 0
-131 -184 -222 0
54 -64 -78 0
13 -126 -242 0
40 67 87 0
-72 176 219 0
-84 -115 -123 0
120 156 -219 0
-3 -81 -205 0
33 95 214 0
103 194 -202 0
-11 237 -238 0
84 145 192 0
17 133 -189 0
-77 87 -247 0
207 -211 -244 0
-56 -201 -240 0
68 -82 -192 0
-176 -191 219 0
-1 23 -158 0
-26 195 -245 0
-3 95 -150 0
5 188 234 0
37 45 228 0
75 -113 -193 0
-57 -144 184 0
48 113 206 0
-27 -215 -230 0
-96 -134 -231 0
33 -57 -240 0
43 -106 111 0
23 -198 -229 0
-65 117 168 0
-19 -166 -236 0
-58 -212 233 0
-60 77 -84 0
-1 16 -168 0
62 -132 -146 0
187 -195 249 0
-100 145 -184 0
-142 -197 -224 0
-19 -42 149 0
-38 39 -243 0
-29 -146 -163 0
-32 121 -243 0
13 203 230 0
4 42 -229 0
-89 174 195 0
87 135 199 0
26 -61 95 0
38 50 -67 0
44 72 213 0
50 127 -206 0
-17 -88 207 0
79 134 -234 0
23 152 -186 0
53 99 -197 0
35 -49 121 0
-96 -196 216 0
-64 126 -230 0
-16 185 -193 0
-164 168 -175 0
111 243 -244 0
45 -66 -67 0
74 -104 106 0
-222 238 244 0
-12 214 -215 0
35 88 234 0
-156 -214 216 0
-35 -96 -198 0
46 109 -165 0
75 -175 -232 0
126 135 148 0
-96 -188 214 0
66 -211 -229 0
-84 -134 209 0
30 -189 -205 0
-3 -28 -98 0
49 -226 -229 0
78 214 -216 0
-4 -123 -172 0
-67 -89 116 0
-111 145 228 0
-148 151 -182 0
83 92 -194 0
63 139 -220 0
35 200 248 0
42 119 136 0
-122 -155 -178 0
18 -167 177 0
72 83 201 0
-43 126 -137 0
19 -138 232 0
7 49 211 0
-80 116 -144 0
73 -141 -164 0
16 -35 -100 0
73 -141 217 0
8 94 -119 0
58 111 141 0
43 -72 123 0
45 -217 -241 0
-2 24 197 0
6 -35 -194 0
29 -60 -148 0
20 -86 -119 0
86 -174 -206 0
-136 168 231 0
-96 -120 -163 0
-60 169 209 0
127 211 220 0
-223 234 245 0
135 180 -205 0
-122 -170 242 0
11 -41 225 0
-6 -17 240 0
-52 202 -218 0
50 -82 -201 0
15 236 -237 0
163 -201 227 0
-13 195 -238 0
-100 -184 212 0
59 -93 -116 0
8 214 243 0
-16 -102 248 0
38 90 226 0
55 74 -138 0
-214 -231 -237 0
32 -47 129 0
22 -109 158 0
25 120 218 0
2 -49 -158 0
-30 155 245 0
39 -122 -164 0
68 87 -159 0
-57 -113 -191 0
103 -138 193 0
9 97 -198 0
1 35 249 0
-160 -203 214 0
1 -23 -165 0
-118 120 143 0
-45 155 -224 0
-126 -137 147 0
-161 -176 -208 0
30 187 -203 0
-58 152 202 0
-24 -135 215 0
105 -151 -226 0
-87 -132 -231 0
132 152 -230 0
-50 -92 211 0
32 -34 -186 0
-139 -142 150 0
62 -223 242 0
-30 -39 237 0
-30 82 180 0
174 -204 221 0
-37 103 -192 0
1 -34 205 0
-47 195 234 0
73 -200 219 0
-38 -153 207 0
-41 -43 -146 0
6 -66 135 0
10 -52 139 0
188 249 -250 0
27 86 93 0
78 -152 206 0
-80 -108 -124 0
30 -116 123 0
94 105 -195 0
-113 -150 229 0
27 162 177 0
-27 -188 -210 0
53 55 -131 0
22 47 153 0
-90 -93 184 0
94 138 -184 0
182 183 -200 0
19 -36 43 0
31 -80 -213 0
50 -69 -75 0
-79 155 -165 0
-22 -89 243 0
-171 -173 -187 0
58 69 -164 0
25 74 -115 0
-54 134 220 0
96 137 167 0
132 135 -208 0
-46 -171 228 0
-142 -143 235 0
57 -129 -142 0
-91 112 145 0
13 44 -160 0
53 171 183 0
-74 -186 -226 0
-57 -160 204 0
37 -81 223 0
-15 -156 174 0
11 -118 -221 0
-3 54 -75 0
2 134 167 0
53 134 181 0
-35 122 136 0
114 -188 -245 0
33 -111 156 0
-139 234 -236 0
-59 176 -224 0
-24 -154 -159 0
-49 -154 -194 0
4 -128 -245 0
-124 -145 218 0
-6 -78 195 0
139 168 199 0
-130 -132 154 0
71 128 -234 0
-20 -141 248 0
39 -156 171 0
38 82 150 0
-140 -177 -226 0
-69 -71 246 0
55 -128 137 0
-3 104 -199 0
117 -214 -236 0
-44 90 210 0
62 -69 192 0
-24 100 -186 0
1 -121 149 0
27 -172 -210 0
72 93 246 0
138 -143 219 0
167 186 -187 0
24 150 -247 0
38 -56 214 0
-39 -68 -122 0
49 -87 221 0
-112 -185 218 0
-10 -121 150 0
73 82 -205 0
-179 -199 210 0
10 98 -155 0
-142 150 196 0
-58 80 201 0
79 -169 219 0
25 85 -192 0
-92 221 -229 0
25 164 216 0
135 168 232 0
-94 137 247 0
-52 84 89 0
73 -132 212 0
-45 -203 210 0
6 -16 83 0
-122 -171 -227 0
13 124 -154 0
54 -155 -183 0
94 100 -246 0
78 100 156 0
33 -91 170 0
-86 -105 -114 0
62 103 -235 0
8 -42 121 0
42 120 205 0
4 13 -247 0
125 -173 -213 0
-17 -186 -223 0
90 153 175 0
-12 103 -124 0
52 78 97 0
-126 -130 189 0
24 -46 -244 0
51 83 -250 0
-21 30 -158 0
108 156 -213 0
-153 158 -164 0
51 -79 -116 0
-147 -197 201 0
28 -76 -88 0
67 77 190 0
-28 54 197 0
-12 18 -215 0
63 -186 215 0
-8 -57 75 0
103 -131 -195 0
-65 103 153 0
-119 189 211 0
-54 93 -143 0
19 -193 -240 0
-47 138 -187 0
-59 60 121 0
79 -82 -161 0
187 193 239 0
-80 145 -226 0
-13 -191 -192 0
-1 56 247 0
112 -167 -246 0
126 153 -180 0
-34 152 -187 0
-21 30 169 0
25 -125 -203 0
-98 222 227 0
-23 47 -57 0
-48 156 193 0
-17 -105 -127 0
51 93 -195 0
119 174 227 0
-145 179 216 0
-112 222 243 0
137 -166 -245 0
92 131 226 0
62 178 198 0
51 -62 -187 0
138 154 162 0
63 177 -242 0
-106 164 205 0
81 95 -198 0
18 158 -234 0
140 -150 -186 0
-185 222 241 0
3 -116 -199 0
20 -204 242 0
72 -79 -126 0
-11 -73 144 0
12 -75 -96 0
-45 -197 -204 0
-101 -106 110 0
-201 208 240 0
-16 45 -156 0
-183 -195 199 0
20 -153 246 0
-37 84 202 0
-70 -83 195 0
62 109 -211 0
170 205 249 0
-16 -89 195 0
-72 -181 -205 0
101 138 -186 0
42 72 -169 0
12 70 188 0
51 -209 -215 0
4 -46 238 0
14 -155 -188 0
51 157 196 0
-105 -124 214 0
68 -151 -170 0
99 -125 130 0
37 56 -210 0
-58 -86 -139 0
-37 164 -188 0
31 52 63 0
154 -158 -184 0
52 112 -249 0
-69 102 -165 0
-70 76 -230 0
60 154 -236 0
26 75 162 0
-90 -126 -191 0
30 -188 239 0
36 183 -244 0
79 -123 135 0
5 150 -162 0
-130 137 -188 0
134 149 -153 0
3 96 237 0
118 -144 -208 0
46 -56 -99 0
-10 198 -222 0
95 171 -192 0
-146 -173 239 0
-24 154 -230 0
-119 132 -142 0
-52 -56 141 0
35 -192 216 0
4 -116 200 0
63 215 -224 0
-90 209 -218 0
-93 149 213 0
-144 -146 -201 0
-16 174 202 0
97 -132 -247 0
-2 48 -50 0
-90 98 132 0
-24 41 116 0
-75 -116 -132 0
-87 -227 244 0
100 102 -158 0
78 -110 -150 0
-137 -198 -214 0
-13 -55 231 0
-62 103 -212 0
-23 -152 -246 0
-149 153 186 0
-66 -110 149 0
179 228 250 0
-14 -75 78 0
113 136 209 0
17 -36 83 0
-27 -108 238 0
97 -118 126 0
-26 127 -185 0
110 -169 237 0
75 87 175 0
79 107 -131 0
-43 -48 51 0
-185 -194 -228 0
-43 79 -212 0
-3 49 -233 0
84 -134 -164 0
84 170 225 0
-152 -195 227 0
16 40 164 0
-36 83 202 0
-80 -157 -244 0
61 146 217 0
-89 -207 243 0
70 -76 -146 0
-76 -160 -249 0
131 133 -166 0
15 -170 225 0
-53 77 183 0
83 -104 -164 0
25 -168 229 0
105 -151 210 0
50 -143 -145 0
-7 -177 -247 0
-64 91 -117 0
-154 -161 -182 0
-134 181 -200 0
23 38 -104 0
37 -57 -80 0
3 -147 208 0
41 77 233 0
-83 121 -173 0
-76 -104 -196 0
31 -96 194 0
-9 83 -219 0
148 -169 228 0
-15 -38 188 0
20 -172 -223 0
39 -83 -103 0
23 -140 181 0
-105 122 173 0
84 -143 220 0
28 -55 -167 0
-38 -83 -154 0
13 -178 199 0
44 90 -107 0
-46 71 126 0
-160 -177 216 0
-8 79 -136 0
12 -132 219 0
-18 -220 -247 0
64 -115 -133 0
114 -209 -213 0
-98 -176 229 0
50 79 157 0
86 100 -143 0
-54 82 124 0
61 160 200 0
164 197 -250 0
-47 -80 -83 0
-20 95 -187 0
-29 -63 -154 0
-12 -37 -148 0
48 135 -223 0
188 200 249 0
-53 -180 223 0
-97 124 180 0
-54 -113 -124 0
-12 226 -227 0
9 -52 -211 0
17 -34 77 0
-60 -201 -224 0
-101 158 -192 0
21 116 -189 0
-57 -74 -149 0
105 122 136 0
27 58 115 0
-68 -97 249 0
17 -67 112 0
-9 -111 -139 0
-48 172 202 0
-111 155 -215 0
-15 151 209 0
-87 99 164 0
-67 107 -246 0
58 171 -220 0
104 -112 -137 0
13 -119 -200 0
32 -87 -99 0
-25 225 -235 0
-49 -62 68 0
-63 111 215 0
86 100 -157 0
-27 195 -203 0
58 99 223 0
76 -85 110 0
-5 148 178 0
-57 -178 -215 0
49 193 225 0
-29 -30 175 0
-66 -195 235 0
124 130 146 0
-54 100 169 0
-16 47 191 0
-2 -147 -190 0
-11 -123 158 0
-1 203 248 0
13 -149 249 0
-56 95 223 0
-88 -166 187 0
-46 -69 -223 0
-6 -76 250 0
-111 151 200 0
-153 -204 219 0
16 116 250 0
33 -118 -194 0
-148 -169 174 0
-57 89 236 0
-94 147 199 0
93 152 181 0
35 79 -160 0
-21 -202 -234 0
40 59 -101 0
26 194 250 0
-76 144 -154 0
59 132 -238 0
-35 96 -248 0
47 114 -184 0
2 -129 245 0
-60 66 215 0
-64 152 -171 0
-61 -164 189 0
96 190 197 0
9 178 228 0
-77 246 -249 0
25 -155 -249 0
-13 -29 142 0
34 -51 61 0
-30 207 -235 0
103 155 212 0
-18 -52 -127 0
-32 -103 -225 0
78 100 -216 0
-21 130 167 0
182 207 -216 0
22 -128 -211 0
60 115 162 0
-68 -133 203 0
-60 -70 215 0
-33 -77 -249 0
-108 -117 151 0
87 196 238 0
-7 -32 44 0
-31 109 -199 0
34 -74 -167 0
-5 85 219 0
-218 -223 240 0
-39 -151 -236 0
7 -56 130 0
48 135 -190 0
-208 -218 232 0
-41 -54 -118 0
-59 64 -202 0
144 -176 -182 0
41 -166 -198 0
-127 154 155 0
-11 -19 -74 0
83 100 183 0
205 -211 235 0
50 -173 177 0
93 -131 -223 0
14 30 -131 0
1 -142 222 0
-87 89 230 0
-67 78 -232 0
-65 -212 -224 0
-33 152 -202 0
116 -137 202 0
71 174 -181 0
77 -158 181 0
187 189 244 0
-46 -167 236 0
-170 -201 -217 0
92 -144 145 0
1 31 249 0
98 -188 218 0
-4 -7 -20 0
62 -169 -231 0
-144 191 -202 0
-24 -48 188 0
15 -96 -144 0
-49 52 -168 0
-61 82 -115 0
-136 -159 -198 0
-15 -51 -77 0
-52 -99 -132 0
-14 103 -123 0
49 238 239 0
-103 -173 -229 0
56 -112 138 0
36 198 215 0
67 -169 -222 0
-49 -147 195 0
80 -133 199 0
-27 159 180 0
-4 65 -248 0
125 -241 -245 0
-34 -175 -245 0
-45 106 -203 0
-60 -89 -246 0
88 -152 154 0
95 -246 250 0
110 167 -173 0
105 -236 -240 0
-140 141 -213 0
13 80 112 0
-24 223 -240 0
7 42 -99 0
20 -95 165 0
122 133 190 0
28 30 -249 0
11 -55 198 0
-87 -95 124 0
-6 197 -211 0
101 -202 -218 0
7 -26 -27 0
20 -203 241 0
38 161 209 0
-77 213 -244 0
-66 -206 -220 0
-17 35 -146 0
129 -148 -208 0
-71 -192 -212 0
-97 -118 -248 0
36 89 -186 0
-116 -126 -215 0
-12 123 218 0
36 69 -99 0
47 220 221 0
38 -192 -232 0
-1 -15 118 0
65 73 -180 0
-68 -187 -242 0
-26 40 233 0
-84 155 215 0
69 -148 176 0
-33 -65 214 0
154 -222 244 0
-92 -143 171 0
-9 -44 171 0
9 -104 134 0
-152 181 -229 0
-164 182 185 0
7 -119 220 0
-51 156 250 0
45 -88 -140 0
-19 62 99 0
-80 -222 233 0
-13 71 105 0
-7 73 -235 0
114 128 -233 0
14 178 -182 0
-119 157 188 0
-139 175 239 0
2 -159 -184 0
23 40 -228 0
-38 199 210 0
-128 143 217 0
-33 -35 139 0
12 160 -189 0
149 181 -224 0
-11 -197 -235 0
-165 -191 -203 0
38 66 173 0
-25 95 -137 0
62 110 231 0
-164 -173 -213 0
11 -27 -52 0
46 105 247 0
-5 -94 -114 0
-110 -137 179 0
177 -194 -215 0
30 55 -149 0
80 -165 -198 0
140 175 212 0
3 158 203 0
-40 82 177 0
30 140 183 0
-38 57 -169 0
91 -165 -185 0
-22 90 -131 0
17 37 -95 0
-68 105 -164 0
-13 -36 44 0
-24 101 139 0
-45 -136 190 0
151 -210 236 0
200 -208 240 0
137 177 -192 0
-70 -159 231 0
19 -20 -231 0
66 -81 -86 0
-43 -75 84 0
94 140 238 0
35 -73 141 0
78 -105 233 0
-181 -221 -249 0
53 109 248 0
-49 -56 -150 0
-48 -120 -233 0
-34 153 -195 0
-51 98 -173 0
63 67 -206 0
-42 -50 -187 0
-86 173 242 0
-65 156 -239 0
-16 -110 197 0
-92 130 -238 0
83 -182 207 0
23 -24 155 0
27 67 -132 0
-25 -75 -100 0
56 -109 -182 0
34 -67 -187 0
-44 -106 114 0
-153 -199 204 0
25 156 -249 0
-24 -130 -174 0
63 126 164 0
39 -45 88 0
-84 -219 224 0
100 135 -154 0
-65 156 173 0
112 138 171 0
32 -117 215 0
-32 -41 -74 0
-35 -140 205 0
-7 69 128 0
7 -146 -183 0
40 -186 -193 0
-45 111 -231 0
35 136 -157 0
-10 131 -179 0
12 75 191 0
54 -78 -213 0
-190 -232 -236 0
72 157 165 0
20 170 -235 0
-68 128 186 0
30 -42 -96 0
-16 -110 168 0
-8 -141 -163 0
5 105 190 0
20 -144 -167 0
-42 91 215 0
-66 90 126 0
-66 -125 168 0
-40 93 184 0
69 -83 -128 0
103 -166 -238 0
-82 -169 239 0
-144 -159 -243 0
88 -103 -146 0
-85 -164 180 0
-71 88 167 0
-136 -150 -214 0
54 -69 -194 0
89 -96 -127 0
-72 157 178 0
118 -140 -184 0
-5 -30 -117 0
43 -84 183 0
64 -160 -206 0
15 -47 -74 0
205 230 244 0
88 -128 211 0
56 211 229 0
-18 173 -245 0
113 181 -227 0
-65 88 116 0
-132 174 236 0
3 -36 151 0
-195 -212 230 0
-67 -99 -197 0
9 -192 -248 0
16 -212 237 0
56 -61 -191 0
30 202 -224 0
35 -157 239 0
-9 166 -172 0
97 -136 -218 0
11 -53 -108 0
40 -143 193 0
26 108 -193 0
-120 187 222 0
-37 -115 -126 0
32 115 -243 0
30 -83 -176 0
14 87 -232 0
66 199 207 0
161 195 -232 0
-111 150 193 0
10 -49 241 0
-161 -213 219 0
-157 181 -213 0
41 -95 -189 0
112 -164 -213 0
-58 124 -166 0
49 57 -184 0
137 -164 206 0
56 -156 -229 0
-21 65 140 0
81 160 -238 0
92 -109 -241 0
-102 138 198 0
92 -133 171 0
26 133 204 0
99 -112 247 0
54 154 225 0
6 82 235 0
-115 -131 -177 0
-21 -38 -183 0
-114 -119 246 0
-17 -46 -191 0
-116 -163 -250 0
-30 151 186 0
13 -129 203 0
70 143 237 0
6 -30 -217 0
-43 44 229 0
97 -112 -182 0
-125 -158 -160 0
25 -112 232 0
9 -11 -105 0
-72 -104 247 0
-119 131 -166 0
49 -188 -204 0
2 96 -206 0
7 -9 11 0
-40 -133 -166 0
36 -65 237 0
140 -184 230 0
45 107 193 0
-102 163 164 0
-86 101 170 0
213 236 244 0
-183 -193 -198 0
-57 168 175 0
49 96 248 0
61 122 -154 0
45 -99 -194 0
53 -104 -216 0
-95 103 127 0
-19 -199 211 0
42 172 232 0
55 181 189 0
-170 173 212 0
53 129 -164 0
114 148 165 0
-87 -93 -111 0
62 -123 -199 0
-75 105 -214 0
-166 -183 212 0
-47 -129 233 0
-28 -66 -98 0
-22 91 224 0
7 54 -88 0
41 43 236 0
-31 37 159 0
60 146 187 0
-139 -215 250 0
-108 -174 -246 0
108 -210 -234 0
22 199 213 0
-112 134 234 0
-34 -216 248 0
33 118 249 0
42 235 -237 0
10 128 201 0
-196 199 217 0
-40 -107 238 0
45 124 -179 0
-67 -72 -134 0
-40 132 232 0
-26 -65 158 0
79 176 193 0
104 -105 112 0
-26 171 -178 0
-15 194 217 0
-200 206 216 0
-164 168 -185 0
20 108 187 0
-37 -73 -230 0
19 97 -104 0
-89 216 246 0
-21 -47 -243 0
-57 77 203 0
-157 165 -241 0
73 -122 146 0
24 -155 236 0
38 137 -162 0
-28 68 234 0
-55 122 243 0
2 -96 175 0
50 -155 -200 0
16 35 243 0
45 49 144 0
-170 181 -241 0
33 45 -117 0
-43 -104 -221 0
-27 89 227 0
78 221 -242 0
61 232 235 0
2 -72 195 0
-95 -112 -174 0
157 188 201 0
24 174 -189 0
-118 155 201 0
-198 -208 237 0
-2 -117 -152 0
98 -190 -230 0
88 -125 -208 0
-62 236 -249 0
61 -119 120 0
152 -225 -231 0
-63 -184 -214 0
-74 -97 -229 0
-25 71 -77 0
24 -55 177 0
-38 186 233 0
205 -230 -234 0
-31 -43 -236 0
-104 -224 227 0
129 -135 -151 0
52 -58 -232 0
90 -147 235 0
-45 -183 -194 0
8 -46 148 0
-49 102 -207 0
-6 22 -140 0
-40 206 -238 0
-33 82 -219 0
4 -77 -217 0
-64 -127 178 0
41 -109 135 0
-39 144 185 0
47 -156 206 0
-169 211 -242 0
123 -190 -225 0
129 -138 225 0
27 79 212 0
38 111 -209 0
