c description: Pigeonhole principle formula for 6 pigeons and 5 holes
c generator: CNFgen (0.9.5)
c copyright: (C) 2012-2026 Massimo Lauria <massimo.lauria@uniroma1.it>
c url: https://massimolauria.net/cnfgen
c transformation 1: Substitution with XOR of arity 2
c command line: cnfgen php 6 5 -T xor 2
c
p cnf 60 492
1 2 3 4 5 6 7 8 9 10 0
1 2 3 4 5 6 7 8 -9 -10 0
1 2 3 4 5 6 -7 -8 9 10 0
1 2 3 4 5 6 -7 -8 -9 -10 0
1 2 3 4 -5 -6 7 8 9 10 0
1 2 3 4 -5 -6 7 8 -9 -10 0
1 2 3 4 -5 -6 -7 -8 9 10 0
1 2 3 4 -5 -6 -7 -8 -9 -10 0
1 2 -3 -4 5 6 7 8 9 10 0
1 2 -3 -4 5 6 7 8 -9 -10 0
1 2 -3 -4 5 6 -7 -8 9 10 0
1 2 -3 -4 5 6 -7 -8 -9 -10 0
1 2 -3 -4 -5 -6 7 8 9 10 0
1 2 -3 -4 -5 -6 7 8 -9 -10 0
1 2 -3 -4 -5 -6 -7 -8 9 10 0
1 2 -3 -4 -5 -6 -7 -8 -9 -10 0
-1 -2 3 4 5 6 7 8 9 10 0
-1 -2 3 4 5 6 7 8 -9 -10 0
-1 -2 3 4 5 6 -7 -8 9 10 0
-1 -2 3 4 5 6 -7 -8 -9 -10 0
-1 -2 3 4 -5 -6 7 8 9 10 0
-1 -2 3 4 -5 -6 7 8 -9 -10 0
-1 -2 3 4 -5 -6 -7 -8 9 10 0
-1 -2 3 4 -5 -6 -7 -8 -9 -10 0
-1 -2 -3 -4 5 6 7 8 9 10 0
-1 -2 -3 -4 5 6 7 8 -9 -10 0
-1 -2 -3 -4 5 6 -7 -8 9 10 0
-1 -2 -3 -4 5 6 -7 -8 -9 -10 0
-1 -2 -3 -4 -5 -6 7 8 9 10 0
-1 -2 -3 -4 -5 -6 7 8 -9 -10 0
-1 -2 -3 -4 -5 -6 -7 -8 9 10 0
-1 -2 -3 -4 -5 -6 -7 -8 -9 -10 0
11 12 13 14 15 16 17 18 19 20 0
11 12 13 14 15 16 17 18 -19 -20 0
11 12 13 14 15 16 -17 -18 19 20 0
11 12 13 14 15 16 -17 -18 -19 -20 0
11 12 13 14 -15 -16 17 18 19 20 0
11 12 13 14 -15 -16 17 18 -19 -20 0
11 12 13 14 -15 -16 -17 -18 19 20 0
11 12 13 14 -15 -16 -17 -18 -19 -20 0
11 12 -13 -14 15 16 17 18 19 20 0
11 12 -13 -14 15 16 17 18 -19 -20 0
11 12 -13 -14 15 16 -17 -18 19 20 0
11 12 -13 -14 15 16 -17 -18 -19 -20 0
11 12 -13 -14 -15 -16 17 18 19 20 0
11 12 -13 -14 -15 -16 17 18 -19 -20 0
11 12 -13 -14 -15 -16 -17 -18 19 20 0
11 12 -13 -14 -15 -16 -17 -18 -19 -20 0
-11 -12 13 14 15 16 17 18 19 20 0
-11 -12 13 14 15 16 17 18 -19 -20 0
-11 -12 13 14 15 16 -17 -18 19 20 0
-11 -12 13 14 15 16 -17 -18 -19 -20 0
-11 -12 13 14 -15 -16 17 18 19 20 0
-11 -12 13 14 -15 -16 17 18 -19 -20 0
-11 -12 13 14 -15 -16 -17 -18 19 20 0
-11 -12 13 14 -15 -16 -17 -18 -19 -20 0
-11 -12 -13 -14 15 16 17 18 19 20 0
-11 -12 -13 -14 15 16 17 18 -19 -20 0
-11 -12 -13 -14 15 16 -17 -18 19 20 0
-11 -12 -13 -14 15 16 -17 -18 -19 -20 0
-11 -12 -13 -14 -15 -16 17 18 19 20 0
-11 -12 -13 -14 -15 -16 17 18 -19 -20 0
-11 -12 -13 -14 -15 -16 -17 -18 19 20 0
-11 -12 -13 -14 -15 -16 -17 -18 -19 -20 0
21 22 23 24 25 26 27 28 29 30 0
21 22 23 24 25 26 27 28 -29 -30 0
21 22 23 24 25 26 -27 -28 29 30 0
21 22 23 24 25 26 -27 -28 -29 -30 0
21 22 23 24 -25 -26 27 28 29 30 0
21 22 23 24 -25 -26 27 28 -29 -30 0
21 22 23 24 -25 -26 -27 -28 29 30 0
21 22 23 24 -25 -26 -27 -28 -29 -30 0
21 22 -23 -24 25 26 27 28 29 30 0
21 22 -23 -24 25 26 27 28 -29 -30 0
21 22 -23 -24 25 26 -27 -28 29 30 0
21 22 -23 -24 25 26 -27 -28 -29 -30 0
21 22 -23 -24 -25 -26 27 28 29 30 0
21 22 -23 -24 -25 -26 27 28 -29 -30 0
21 22 -23 -24 -25 -26 -27 -28 29 30 0
21 22 -23 -24 -25 -26 -27 -28 -29 -30 0
-21 -22 23 24 25 26 27 28 29 30 0
-21 -22 23 24 25 26 27 28 -29 -30 0
-21 -22 23 24 25 26 -27 -28 29 30 0
-21 -22 23 24 25 26 -27 -28 -29 -30 0
-21 -22 23 24 -25 -26 27 28 29 30 0
-21 -22 23 24 -25 -26 27 28 -29 -30 0
-21 -22 23 24 -25 -26 -27 -28 29 30 0
-21 -22 23 24 -25 -26 -27 -28 -29 -30 0
-21 -22 -23 -24 25 26 27 28 29 30 0
-21 -22 -23 -24 25 26 27 28 -29 -30 0
-21 -22 -23 -24 25 26 -27 -28 29 30 0
-21 -22 -23 -24 25 26 -27 -28 -29 -30 0
-21 -22 -23 -24 -25 -26 27 28 29 30 0
-21 -22 -23 -24 -25 -26 27 28 -29 -30 0
-21 -22 -23 -24 -25 -26 -27 -28 29 30 0
-21 -22 -23 -24 -25 -26 -27 -28 -29 -30 0
31 32 33 34 35 36 37 38 39 40 0
31 32 33 34 35 36 37 38 -39 -40 0
31 32 33 34 35 36 -37 -38 39 40 0
31 32 33 34 35 36 -37 -38 -39 -40 0
31 32 33 34 -35 -36 37 38 39 40 0
31 32 33 34 -35 -36 37 38 -39 -40 0
31 32 33 34 -35 -36 -37 -38 39 40 0
31 32 33 34 -35 -36 -37 -38 -39 -40 0
31 32 -33 -34 35 36 37 38 39 40 0
31 32 -33 -34 35 36 37 38 -39 -40 0
31 32 -33 -34 35 36 -37 -38 39 40 0
31 32 -33 -34 35 36 -37 -38 -39 -40 0
31 32 -33 -34 -35 -36 37 38 39 40 0
31 32 -33 -34 -35 -36 37 38 -39 -40 0
31 32 -33 -34 -35 -36 -37 -38 39 40 0
31 32 -33 -34 -35 -36 -37 -38 -39 -40 0
-31 -32 33 34 35 36 37 38 39 40 0
-31 -32 33 34 35 36 37 38 -39 -40 0
-31 -32 33 34 35 36 -37 -38 39 40 0
-31 -32 33 34 35 36 -37 -38 -39 -40 0
-31 -32 33 34 -35 -36 37 38 39 40 0
-31 -32 33 34 -35 -36 37 38 -39 -40 0
-31 -32 33 34 -35 -36 -37 -38 39 40 0
-31 -32 33 34 -35 -36 -37 -38 -39 -40 0
-31 -32 -33 -34 35 36 37 38 39 40 0
-31 -32 -33 -34 35 36 37 38 -39 -40 0
-31 -32 -33 -34 35 36 -37 -38 39 40 0
-31 -32 -33 -34 35 36 -37 -38 -39 -40 0
-31 -32 -33 -34 -35 -36 37 38 39 40 0
-31 -32 -33 -34 -35 -36 37 38 -39 -40 0
-31 -32 -33 -34 -35 -36 -37 -38 39 40 0
-31 -32 -33 -34 -35 -36 -37 -38 -39 -40 0
41 42 43 44 45 46 47 48 49 50 0
41 42 43 44 45 46 47 48 -49 -50 0
41 42 43 44 45 46 -47 -48 49 50 0
41 42 43 44 45 46 -47 -48 -49 -50 0
41 42 43 44 -45 -46 47 48 49 50 0
41 42 43 44 -45 -46 47 48 -49 -50 0
41 42 43 44 -45 -46 -47 -48 49 50 0
41 42 43 44 -45 -46 -47 -48 -49 -50 0
41 42 -43 -44 45 46 47 48 49 50 0
41 42 -43 -44 45 46 47 48 -49 -50 0
41 42 -43 -44 45 46 -47 -48 49 50 0
41 42 -43 -44 45 46 -47 -48 -49 -50 0
41 42 -43 -44 -45 -46 47 48 49 50 0
41 42 -43 -44 -45 -46 47 48 -49 -50 0
41 42 -43 -44 -45 -46 -47 -48 49 50 0
41 42 -43 -44 -45 -46 -47 -48 -49 -50 0
-41 -42 43 44 45 46 47 48 49 50 0
-41 -42 43 44 45 46 47 48 -49 -50 0
-41 -42 43 44 45 46 -47 -48 49 50 0
-41 -42 43 44 45 46 -47 -48 -49 -50 0
-41 -42 43 44 -45 -46 47 48 49 50 0
-41 -42 43 44 -45 -46 47 48 -49 -50 0
-41 -42 43 44 -45 -46 -47 -48 49 50 0
-41 -42 43 44 -45 -46 -47 -48 -49 -50 0
-41 -42 -43 -44 45 46 47 48 49 50 0
-41 -42 -43 -44 45 46 47 48 -49 -50 0
-41 -42 -43 -44 45 46 -47 -48 49 50 0
-41 -42 -43 -44 45 46 -47 -48 -49 -50 0
-41 -42 -43 -44 -45 -46 47 48 49 50 0
-41 -42 -43 -44 -45 -46 47 48 -49 -50 0
-41 -42 -43 -44 -45 -46 -47 -48 49 50 0
-41 -42 -43 -44 -45 -46 -47 -48 -49 -50 0
51 52 53 54 55 56 57 58 59 60 0
51 52 53 54 55 56 57 58 -59 -60 0
51 52 53 54 55 56 -57 -58 59 60 0
51 52 53 54 55 56 -57 -58 -59 -60 0
51 52 53 54 -55 -56 57 58 59 60 0
51 52 53 54 -55 -56 57 58 -59 -60 0
51 52 53 54 -55 -56 -57 -58 59 60 0
51 52 53 54 -55 -56 -57 -58 -59 -60 0
51 52 -53 -54 55 56 57 58 59 60 0
51 52 -53 -54 55 56 57 58 -59 -60 0
51 52 -53 -54 55 56 -57 -58 59 60 0
51 52 -53 -54 55 56 -57 -58 -59 -60 0
51 52 -53 -54 -55 -56 57 58 59 60 0
51 52 -53 -54 -55 -56 57 58 -59 -60 0
51 52 -53 -54 -55 -56 -57 -58 59 60 0
51 52 -53 -54 -55 -56 -57 -58 -59 -60 0
-51 -52 53 54 55 56 57 58 59 60 0
-51 -52 53 54 55 56 57 58 -59 -60 0
-51 -52 53 54 55 56 -57 -58 59 60 0
-51 -52 53 54 55 56 -57 -58 -59 -60 0
-51 -52 53 54 -55 -56 57 58 59 60 0
-51 -52 53 54 -55 -56 57 58 -59 -60 0
-51 -52 53 54 -55 -56 -57 -58 59 60 0
-51 -52 53 54 -55 -56 -57 -58 -59 -60 0
-51 -52 -53 -54 55 56 57 58 59 60 0
-51 -52 -53 -54 55 56 57 58 -59 -60 0
-51 -52 -53 -54 55 56 -57 -58 59 60 0
-51 -52 -53 -54 55 56 -57 -58 -59 -60 0
-51 -52 -53 -54 -55 -56 57 58 59 60 0
-51 -52 -53 -54 -55 -56 57 58 -59 -60 0
-51 -52 -53 -54 -55 -56 -57 -58 59 60 0
-51 -52 -53 -54 -55 -56 -57 -58 -59 -60 0
1 -2 11 -12 0
1 -2 -11 12 0
-1 2 11 -12 0
-1 2 -11 12 0
1 -2 21 -22 0
1 -2 -21 22 0
-1 2 21 -22 0
-1 2 -21 22 0
1 -2 31 -32 0
1 -2 -31 32 0
-1 2 31 -32 0
-1 2 -31 32 0
1 -2 41 -42 0
1 -2 -41 42 0
-1 2 41 -42 0
-1 2 -41 42 0
1 -2 51 -52 0
1 -2 -51 52 0
-1 2 51 -52 0
-1 2 -51 52 0
11 -12 21 -22 0
11 -12 -21 22 0
-11 12 21 -22 0
-11 12 -21 22 0
11 -12 31 -32 0
11 -12 -31 32 0
-11 12 31 -32 0
-11 12 -31 32 0
11 -12 41 -42 0
11 -12 -41 42 0
-11 12 41 -42 0
-11 12 -41 42 0
11 -12 51 -52 0
11 -12 -51 52 0
-11 12 51 -52 0
-11 12 -51 52 0
21 -22 31 -32 0
21 -22 -31 32 0
-21 22 31 -32 0
-21 22 -31 32 0
21 -22 41 -42 0
21 -22 -41 42 0
-21 22 41 -42 0
-21 22 -41 42 0
21 -22 51 -52 0
21 -22 -51 52 0
-21 22 51 -52 0
-21 22 -51 52 0
31 -32 41 -42 0
31 -32 -41 42 0
-31 32 41 -42 0
-31 32 -41 42 0
31 -32 51 -52 0
31 -32 -51 52 0
-31 32 51 -52 0
-31 32 -51 52 0
41 -42 51 -52 0
41 -42 -51 52 0
-41 42 51 -52 0
-41 42 -51 52 0
3 -4 13 -14 0
3 -4 -13 14 0
-3 4 13 -14 0
-3 4 -13 14 0
3 -4 23 -24 0
3 -4 -23 24 0
-3 4 23 -24 0
-3 4 -23 24 0
3 -4 33 -34 0
3 -4 -33 34 0
-3 4 33 -34 0
-3 4 -33 34 0
3 -4 43 -44 0
3 -4 -43 44 0
-3 4 43 -44 0
-3 4 -43 44 0
3 -4 53 -54 0
3 -4 -53 54 0
-3 4 53 -54 0
-3 4 -53 54 0
13 -14 23 -24 0
13 -14 -23 24 0
-13 14 23 -24 0
-13 14 -23 24 0
13 -14 33 -34 0
13 -14 -33 34 0
-13 14 33 -34 0
-13 14 -33 34 0
13 -14 43 -44 0
13 -14 -43 44 0
-13 14 43 -44 0
-13 14 -43 44 0
13 -14 53 -54 0
13 -14 -53 54 0
-13 14 53 -54 0
-13 14 -53 54 0
23 -24 33 -34 0
23 -24 -33 34 0
-23 24 33 -34 0
-23 24 -33 34 0
23 -24 43 -44 0
23 -24 -43 44 0
-23 24 43 -44 0
-23 24 -43 44 0
23 -24 53 -54 0
23 -24 -53 54 0
-23 24 53 -54 0
-23 24 -53 54 0
33 -34 43 -44 0
33 -34 -43 44 0
-33 34 43 -44 0
-33 34 -43 44 0
33 -34 53 -54 0
33 -34 -53 54 0
-33 34 53 -54 0
-33 34 -53 54 0
43 -44 53 -54 0
43 -44 -53 54 0
-43 44 53 -54 0
-43 44 -53 54 0
5 -6 15 -16 0
5 -6 -15 16 0
-5 6 15 -16 0
-5 6 -15 16 0
5 -6 25 -26 0
5 -6 -25 26 0
-5 6 25 -26 0
-5 6 -25 26 0
5 -6 35 -36 0
5 -6 -35 36 0
-5 6 35 -36 0
-5 6 -35 36 0
5 -6 45 -46 0
5 -6 -45 46 0
-5 6 45 -46 0
-5 6 -45 46 0
5 -6 55 -56 0
5 -6 -55 56 0
-5 6 55 -56 0
-5 6 -55 56 0
15 -16 25 -26 0
15 -16 -25 26 0
-15 16 25 -26 0
-15 16 -25 26 0
15 -16 35 -36 0
15 -16 -35 36 0
-15 16 35 -36 0
-15 16 -35 36 0
15 -16 45 -46 0
15 -16 -45 46 0
-15 16 45 -46 0
-15 16 -45 46 0
15 -16 55 -56 0
15 -16 -55 56 0
-15 16 55 -56 0
-15 16 -55 56 0
25 -26 35 -36 0
25 -26 -35 36 0
-25 26 35 -36 0
-25 26 -35 36 0
25 -26 45 -46 0
25 -26 -45 46 0
-25 26 45 -46 0
-25 26 -45 46 0
25 -26 55 -56 0
25 -26 -55 56 0
-25 26 55 -56 0
-25 26 -55 56 0
35 -36 45 -46 0
35 -36 -45 46 0
-35 36 45 -46 0
-35 36 -45 46 0
35 -36 55 -56 0
35 -36 -55 56 0
-35 36 55 -56 0
-35 36 -55 56 0
45 -46 55 -56 0
45 -46 -55 56 0
-45 46 55 -56 0
-45 46 -55 56 0
7 -8 17 -18 0
7 -8 -17 18 0
-7 8 17 -18 0
-7 8 -17 18 0
7 -8 27 -28 0
7 -8 -27 28 0
-7 8 27 -28 0
-7 8 -27 28 0
7 -8 37 -38 0
7 -8 -37 38 0
-7 8 37 -38 0
-7 8 -37 38 0
7 -8 47 -48 0
7 -8 -47 48 0
-7 8 47 -48 0
-7 8 -47 48 0
7 -8 57 -58 0
7 -8 -57 58 0
-7 8 57 -58 0
-7 8 -57 58 0
17 -18 27 -28 0
17 -18 -27 28 0
-17 18 27 -28 0
-17 18 -27 28 0
17 -18 37 -38 0
17 -18 -37 38 0
-17 18 37 -38 0
-17 18 -37 38 0
17 -18 47 -48 0
17 -18 -47 48 0
-17 18 47 -48 0
-17 18 -47 48 0
17 -18 57 -58 0
17 -18 -57 58 0
-17 18 57 -58 0
-17 18 -57 58 0
27 -28 37 -38 0
27 -28 -37 38 0
-27 28 37 -38 0
-27 28 -37 38 0
27 -28 47 -48 0
27 -28 -47 48 0
-27 28 47 -48 0
-27 28 -47 48 0
27 -28 57 -58 0
27 -28 -57 58 0
-27 28 57 -58 0
-27 28 -57 58 0
37 -38 47 -48 0
37 -38 -47 48 0
-37 38 47 -48 0
-37 38 -47 48 0
37 -38 57 -58 0
37 -38 -57 58 0
-37 38 57 -58 0
-37 38 -57 58 0
47 -48 57 -58 0
47 -48 -57 58 0
-47 48 57 -58 0
-47 48 -57 58 0
9 -10 19 -20 0
9 -10 -19 20 0
-9 10 19 -20 0
-9 10 -19 20 0
9 -10 29 -30 0
9 -10 -29 30 0
-9 10 29 -30 0
-9 10 -29 30 0
9 -10 39 -40 0
9 -10 -39 40 0
-9 10 39 -40 0
-9 10 -39 40 0
9 -10 49 -50 0
9 -10 -49 50 0
-9 10 49 -50 0
-9 10 -49 50 0
9 -10 59 -60 0
9 -10 -59 60 0
-9 10 59 -60 0
-9 10 -59 60 0
19 -20 29 -30 0
19 -20 -29 30 0
-19 20 29 -30 0
-19 20 -29 30 0
19 -20 39 -40 0
19 -20 -39 40 0
-19 20 39 -40 0
-19 20 -39 40 0
19 -20 49 -50 0
19 -20 -49 50 0
-19 20 49 -50 0
-19 20 -49 50 0
19 -20 59 -60 0
19 -20 -59 60 0
-19 20 59 -60 0
-19 20 -59 60 0
29 -30 39 -40 0
29 -30 -39 40 0
-29 30 39 -40 0
-29 30 -39 40 0
29 -30 49 -50 0
29 -30 -49 50 0
-29 30 49 -50 0
-29 30 -49 50 0
29 -30 59 -60 0
29 -30 -59 60 0
-29 30 59 -60 0
-29 30 -59 60 0
39 -40 49 -50 0
39 -40 -49 50 0
-39 40 49 -50 0
-39 40 -49 50 0
39 -40 59 -60 0
39 -40 -59 60 0
-39 40 59 -60 0
-39 40 -59 60 0
49 -50 59 -60 0
49 -50 -59 60 0
-49 50 59 -60 0
-49 50 -59 60 0
