c description: Sparse stone formula of Pyramid of height 25 with 200 stones
c generator: CNFgen (0.9.5)
c copyright: (C) 2012-2026 Massimo Lauria <massimo.lauria@uniroma1.it>
c url: https://massimolauria.net/cnfgen
c random seed: -1
c command line: cnfgen --seed -1 stone 200 pyramid 25 --sparse 3
c
p cnf 1253 9123
201 202 203 0
204 205 206 0
207 208 209 0
210 211 212 0
213 214 215 0
216 217 218 0
219 220 221 0
222 223 224 0
225 226 227 0
228 229 230 0
231 232 233 0
234 235 236 0
237 238 239 0
240 241 242 0
243 244 245 0
246 247 248 0
249 250 251 0
252 253 254 0
255 256 257 0
258 259 260 0
261 262 263 0
264 265 266 0
267 268 269 0
270 271 272 0
273 274 275 0
276 277 278 0
279 280 281 0
282 283 284 0
285 286 287 0
288 289 290 0
291 292 293 0
294 295 296 0
297 298 299 0
300 301 302 0
303 304 305 0
306 307 308 0
309 310 311 0
312 313 314 0
315 316 317 0
318 319 320 0
321 322 323 0
324 325 326 0
327 328 329 0
330 331 332 0
333 334 335 0
336 337 338 0
339 340 341 0
342 343 344 0
345 346 347 0
348 349 350 0
351 352 353 0
354 355 356 0
357 358 359 0
360 361 362 0
363 364 365 0
366 367 368 0
369 370 371 0
372 373 374 0
375 376 377 0
378 379 380 0
381 382 383 0
384 385 386 0
387 388 389 0
390 391 392 0
393 394 395 0
396 397 398 0
399 400 401 0
402 403 404 0
405 406 407 0
408 409 410 0
411 412 413 0
414 415 416 0
417 418 419 0
420 421 422 0
423 424 425 0
426 427 428 0
429 430 431 0
432 433 434 0
435 436 437 0
438 439 440 0
441 442 443 0
444 445 446 0
447 448 449 0
450 451 452 0
453 454 455 0
456 457 458 0
459 460 461 0
462 463 464 0
465 466 467 0
468 469 470 0
471 472 473 0
474 475 476 0
477 478 479 0
480 481 482 0
483 484 485 0
486 487 488 0
489 490 491 0
492 493 494 0
495 496 497 0
498 499 500 0
501 502 503 0
504 505 506 0
507 508 509 0
510 511 512 0
513 514 515 0
516 517 518 0
519 520 521 0
522 523 524 0
525 526 527 0
528 529 530 0
531 532 533 0
534 535 536 0
537 538 539 0
540 541 542 0
543 544 545 0
546 547 548 0
549 550 551 0
552 553 554 0
555 556 557 0
558 559 560 0
561 562 563 0
564 565 566 0
567 568 569 0
570 571 572 0
573 574 575 0
576 577 578 0
579 580 581 0
582 583 584 0
585 586 587 0
588 589 590 0
591 592 593 0
594 595 596 0
597 598 599 0
600 601 602 0
603 604 605 0
606 607 608 0
609 610 611 0
612 613 614 0
615 616 617 0
618 619 620 0
621 622 623 0
624 625 626 0
627 628 629 0
630 631 632 0
633 634 635 0
636 637 638 0
639 640 641 0
642 643 644 0
645 646 647 0
648 649 650 0
651 652 653 0
654 655 656 0
657 658 659 0
660 661 662 0
663 664 665 0
666 667 668 0
669 670 671 0
672 673 674 0
675 676 677 0
678 679 680 0
681 682 683 0
684 685 686 0
687 688 689 0
690 691 692 0
693 694 695 0
696 697 698 0
699 700 701 0
702 703 704 0
705 706 707 0
708 709 710 0
711 712 713 0
714 715 716 0
717 718 719 0
720 721 722 0
723 724 725 0
726 727 728 0
729 730 731 0
732 733 734 0
735 736 737 0
738 739 740 0
741 742 743 0
744 745 746 0
747 748 749 0
750 751 752 0
753 754 755 0
756 757 758 0
759 760 761 0
762 763 764 0
765 766 767 0
768 769 770 0
771 772 773 0
774 775 776 0
777 778 779 0
780 781 782 0
783 784 785 0
786 787 788 0
789 790 791 0
792 793 794 0
795 796 797 0
798 799 800 0
801 802 803 0
804 805 806 0
807 808 809 0
810 811 812 0
813 814 815 0
816 817 818 0
819 820 821 0
822 823 824 0
825 826 827 0
828 829 830 0
831 832 833 0
834 835 836 0
837 838 839 0
840 841 842 0
843 844 845 0
846 847 848 0
849 850 851 0
852 853 854 0
855 856 857 0
858 859 860 0
861 862 863 0
864 865 866 0
867 868 869 0
870 871 872 0
873 874 875 0
876 877 878 0
879 880 881 0
882 883 884 0
885 886 887 0
888 889 890 0
891 892 893 0
894 895 896 0
897 898 899 0
900 901 902 0
903 904 905 0
906 907 908 0
909 910 911 0
912 913 914 0
915 916 917 0
918 919 920 0
921 922 923 0
924 925 926 0
927 928 929 0
930 931 932 0
933 934 935 0
936 937 938 0
939 940 941 0
942 943 944 0
945 946 947 0
948 949 950 0
951 952 953 0
954 955 956 0
957 958 959 0
960 961 962 0
963 964 965 0
966 967 968 0
969 970 971 0
972 973 974 0
975 976 977 0
978 979 980 0
981 982 983 0
984 985 986 0
987 988 989 0
990 991 992 0
993 994 995 0
996 997 998 0
999 1000 1001 0
1002 1003 1004 0
1005 1006 1007 0
1008 1009 1010 0
1011 1012 1013 0
1014 1015 1016 0
1017 1018 1019 0
1020 1021 1022 0
1023 1024 1025 0
1026 1027 1028 0
1029 1030 1031 0
1032 1033 1034 0
1035 1036 1037 0
1038 1039 1040 0
1041 1042 1043 0
1044 1045 1046 0
1047 1048 1049 0
1050 1051 1052 0
1053 1054 1055 0
1056 1057 1058 0
1059 1060 1061 0
1062 1063 1064 0
1065 1066 1067 0
1068 1069 1070 0
1071 1072 1073 0
1074 1075 1076 0
1077 1078 1079 0
1080 1081 1082 0
1083 1084 1085 0
1086 1087 1088 0
1089 1090 1091 0
1092 1093 1094 0
1095 1096 1097 0
1098 1099 1100 0
1101 1102 1103 0
1104 1105 1106 0
1107 1108 1109 0
1110 1111 1112 0
1113 1114 1115 0
1116 1117 1118 0
1119 1120 1121 0
1122 1123 1124 0
1125 1126 1127 0
1128 1129 1130 0
1131 1132 1133 0
1134 1135 1136 0
1137 1138 1139 0
1140 1141 1142 0
1143 1144 1145 0
1146 1147 1148 0
1149 1150 1151 0
1152 1153 1154 0
1155 1156 1157 0
1158 1159 1160 0
1161 1162 1163 0
1164 1165 1166 0
1167 1168 1169 0
1170 1171 1172 0
1173 1174 1175 0
1176 1177 1178 0
1179 1180 1181 0
1182 1183 1184 0
1185 1186 1187 0
1188 1189 1190 0
1191 1192 1193 0
1194 1195 1196 0
1197 1198 1199 0
1200 1201 1202 0
1203 1204 1205 0
1206 1207 1208 0
1209 1210 1211 0
1212 1213 1214 0
1215 1216 1217 0
1218 1219 1220 0
1221 1222 1223 0
1224 1225 1226 0
1227 1228 1229 0
1230 1231 1232 0
1233 1234 1235 0
1236 1237 1238 0
1239 1240 1241 0
1242 1243 1244 0
1245 1246 1247 0
1248 1249 1250 0
1251 1252 1253 0
-201 35 0
-202 146 0
-203 196 0
-204 17 0
-205 31 0
-206 66 0
-207 116 0
-208 127 0
-209 195 0
-210 98 0
-211 121 0
-212 167 0
-213 25 0
-214 54 0
-215 125 0
-216 8 0
-217 100 0
-218 111 0
-219 156 0
-220 196 0
-221 197 0
-222 1 0
-223 115 0
-224 179 0
-225 59 0
-226 69 0
-227 185 0
-228 27 0
-229 82 0
-230 152 0
-231 6 0
-232 7 0
-233 8 0
-234 3 0
-235 139 0
-236 167 0
-237 56 0
-238 98 0
-239 176 0
-240 8 0
-241 109 0
-242 186 0
-243 57 0
-244 136 0
-245 196 0
-246 113 0
-247 127 0
-248 142 0
-249 60 0
-250 89 0
-251 174 0
-252 57 0
-253 118 0
-254 195 0
-255 6 0
-256 75 0
-257 107 0
-258 26 0
-259 143 0
-260 165 0
-261 48 0
-262 162 0
-263 186 0
-264 31 0
-265 76 0
-266 191 0
-267 86 0
-268 183 0
-269 185 0
-270 109 0
-271 129 0
-272 130 0
-273 49 0
-274 78 0
-275 172 0
-276 73 0
-277 128 0
-278 151 0
-201 -204 -279 -35 -17 101 0
-201 -205 -279 -35 -31 101 0
-201 -206 -279 -35 -66 101 0
-202 -204 -279 -146 -17 101 0
-202 -205 -279 -146 -31 101 0
-202 -206 -279 -146 -66 101 0
-203 -204 -279 -196 -17 101 0
-203 -205 -279 -196 -31 101 0
-203 -206 -279 -196 -66 101 0
-201 -204 -280 -35 -17 130 0
-201 -205 -280 -35 -31 130 0
-201 -206 -280 -35 -66 130 0
-202 -204 -280 -146 -17 130 0
-202 -205 -280 -146 -31 130 0
-202 -206 -280 -146 -66 130 0
-203 -204 -280 -196 -17 130 0
-203 -205 -280 -196 -31 130 0
-203 -206 -280 -196 -66 130 0
-201 -204 -281 -35 -17 151 0
-201 -205 -281 -35 -31 151 0
-201 -206 -281 -35 -66 151 0
-202 -204 -281 -146 -17 151 0
-202 -205 -281 -146 -31 151 0
-202 -206 -281 -146 -66 151 0
-203 -204 -281 -196 -17 151 0
-203 -205 -281 -196 -31 151 0
-203 -206 -281 -196 -66 151 0
-204 -207 -282 -17 -116 9 0
-204 -208 -282 -17 -127 9 0
-204 -209 -282 -17 -195 9 0
-205 -207 -282 -31 -116 9 0
-205 -208 -282 -31 -127 9 0
-205 -209 -282 -31 -195 9 0
-206 -207 -282 -66 -116 9 0
-206 -208 -282 -66 -127 9 0
-206 -209 -282 -66 -195 9 0
-204 -207 -283 -17 -116 63 0
-204 -208 -283 -17 -127 63 0
-204 -209 -283 -17 -195 63 0
-205 -207 -283 -31 -116 63 0
-205 -208 -283 -31 -127 63 0
-205 -209 -283 -31 -195 63 0
-206 -207 -283 -66 -116 63 0
-206 -208 -283 -66 -127 63 0
-206 -209 -283 -66 -195 63 0
-204 -207 -284 -17 -116 123 0
-204 -208 -284 -17 -127 123 0
-204 -209 -284 -17 -195 123 0
-205 -207 -284 -31 -116 123 0
-205 -208 -284 -31 -127 123 0
-205 -209 -284 -31 -195 123 0
-206 -207 -284 -66 -116 123 0
-206 -208 -284 -66 -127 123 0
-206 -209 -284 -66 -195 123 0
-207 -210 -285 -116 -98 104 0
-207 -211 -285 -116 -121 104 0
-207 -212 -285 -116 -167 104 0
-208 -210 -285 -127 -98 104 0
-208 -211 -285 -127 -121 104 0
-208 -212 -285 -127 -167 104 0
-209 -210 -285 -195 -98 104 0
-209 -211 -285 -195 -121 104 0
-209 -212 -285 -195 -167 104 0
-207 -210 -286 -116 -98 107 0
-207 -211 -286 -116 -121 107 0
-207 -212 -286 -116 -167 107 0
-208 -210 -286 -127 -98 107 0
-208 -211 -286 -127 -121 107 0
-208 -212 -286 -127 -167 107 0
-209 -210 -286 -195 -98 107 0
-209 -211 -286 -195 -121 107 0
-209 -212 -286 -195 -167 107 0
-207 -210 -287 -116 -98 191 0
-207 -211 -287 -116 -121 191 0
-207 -212 -287 -116 -167 191 0
-208 -210 -287 -127 -98 191 0
-208 -211 -287 -127 -121 191 0
-208 -212 -287 -127 -167 191 0
-209 -210 -287 -195 -98 191 0
-209 -211 -287 -195 -121 191 0
-209 -212 -287 -195 -167 191 0
-210 -213 -288 -98 -25 45 0
-210 -214 -288 -98 -54 45 0
-210 -215 -288 -98 -125 45 0
-211 -213 -288 -121 -25 45 0
-211 -214 -288 -121 -54 45 0
-211 -215 -288 -121 -125 45 0
-212 -213 -288 -167 -25 45 0
-212 -214 -288 -167 -54 45 0
-212 -215 -288 -167 -125 45 0
-210 -213 -289 -98 -25 94 0
-210 -214 -289 -98 -54 94 0
-210 -215 -289 -98 -125 94 0
-211 -213 -289 -121 -25 94 0
-211 -214 -289 -121 -54 94 0
-211 -215 -289 -121 -125 94 0
-212 -213 -289 -167 -25 94 0
-212 -214 -289 -167 -54 94 0
-212 -215 -289 -167 -125 94 0
-210 -213 -290 -98 -25 171 0
-210 -214 -290 -98 -54 171 0
-210 -215 -290 -98 -125 171 0
-211 -213 -290 -121 -25 171 0
-211 -214 -290 -121 -54 171 0
-211 -215 -290 -121 -125 171 0
-212 -213 -290 -167 -25 171 0
-212 -214 -290 -167 -54 171 0
-212 -215 -290 -167 -125 171 0
-213 -216 -291 -25 -8 141 0
-213 -217 -291 -25 -100 141 0
-213 -218 -291 -25 -111 141 0
-214 -216 -291 -54 -8 141 0
-214 -217 -291 -54 -100 141 0
-214 -218 -291 -54 -111 141 0
-215 -216 -291 -125 -8 141 0
-215 -217 -291 -125 -100 141 0
-215 -218 -291 -125 -111 141 0
-213 -216 -292 -25 -8 180 0
-213 -217 -292 -25 -100 180 0
-213 -218 -292 -25 -111 180 0
-214 -216 -292 -54 -8 180 0
-214 -217 -292 -54 -100 180 0
-214 -218 -292 -54 -111 180 0
-215 -216 -292 -125 -8 180 0
-215 -217 -292 -125 -100 180 0
-215 -218 -292 -125 -111 180 0
-213 -216 -293 -25 -8 199 0
-213 -217 -293 -25 -100 199 0
-213 -218 -293 -25 -111 199 0
-214 -216 -293 -54 -8 199 0
-214 -217 -293 -54 -100 199 0
-214 -218 -293 -54 -111 199 0
-215 -216 -293 -125 -8 199 0
-215 -217 -293 -125 -100 199 0
-215 -218 -293 -125 -111 199 0
-216 -219 -294 -8 -156 96 0
-216 -220 -294 -8 -196 96 0
-216 -221 -294 -8 -197 96 0
-217 -219 -294 -100 -156 96 0
-217 -220 -294 -100 -196 96 0
-217 -221 -294 -100 -197 96 0
-218 -219 -294 -111 -156 96 0
-218 -220 -294 -111 -196 96 0
-218 -221 -294 -111 -197 96 0
-216 -219 -295 -8 -156 173 0
-216 -220 -295 -8 -196 173 0
-216 -221 -295 -8 -197 173 0
-217 -219 -295 -100 -156 173 0
-217 -220 -295 -100 -196 173 0
-217 -221 -295 -100 -197 173 0
-218 -219 -295 -111 -156 173 0
-218 -220 -295 -111 -196 173 0
-218 -221 -295 -111 -197 173 0
-216 -219 -296 -8 -156 189 0
-216 -220 -296 -8 -196 189 0
-216 -221 -296 -8 -197 189 0
-217 -219 -296 -100 -156 189 0
-217 -220 -296 -100 -196 189 0
-217 -221 -296 -100 -197 189 0
-218 -219 -296 -111 -156 189 0
-218 -220 -296 -111 -196 189 0
-218 -221 -296 -111 -197 189 0
-219 -222 -297 -156 -1 23 0
-219 -223 -297 -156 -115 23 0
-219 -224 -297 -156 -179 23 0
-220 -222 -297 -196 -1 23 0
-220 -223 -297 -196 -115 23 0
-220 -224 -297 -196 -179 23 0
-221 -222 -297 -197 -1 23 0
-221 -223 -297 -197 -115 23 0
-221 -224 -297 -197 -179 23 0
-219 -222 -298 -156 -1 113 0
-219 -223 -298 -156 -115 113 0
-219 -224 -298 -156 -179 113 0
-220 -222 -298 -196 -1 113 0
-220 -223 -298 -196 -115 113 0
-220 -224 -298 -196 -179 113 0
-221 -222 -298 -197 -1 113 0
-221 -223 -298 -197 -115 113 0
-221 -224 -298 -197 -179 113 0
-219 -222 -299 -156 -1 170 0
-219 -223 -299 -156 -115 170 0
-219 -224 -299 -156 -179 170 0
-220 -222 -299 -196 -1 170 0
-220 -223 -299 -196 -115 170 0
-220 -224 -299 -196 -179 170 0
-221 -222 -299 -197 -1 170 0
-221 -223 -299 -197 -115 170 0
-221 -224 -299 -197 -179 170 0
-222 -225 -300 -1 -59 28 0
-222 -226 -300 -1 -69 28 0
-222 -227 -300 -1 -185 28 0
-223 -225 -300 -115 -59 28 0
-223 -226 -300 -115 -69 28 0
-223 -227 -300 -115 -185 28 0
-224 -225 -300 -179 -59 28 0
-224 -226 -300 -179 -69 28 0
-224 -227 -300 -179 -185 28 0
-222 -225 -301 -1 -59 131 0
-222 -226 -301 -1 -69 131 0
-222 -227 -301 -1 -185 131 0
-223 -225 -301 -115 -59 131 0
-223 -226 -301 -115 -69 131 0
-223 -227 -301 -115 -185 131 0
-224 -225 -301 -179 -59 131 0
-224 -226 -301 -179 -69 131 0
-224 -227 -301 -179 -185 131 0
-222 -225 -302 -1 -59 200 0
-222 -226 -302 -1 -69 200 0
-222 -227 -302 -1 -185 200 0
-223 -225 -302 -115 -59 200 0
-223 -226 -302 -115 -69 200 0
-223 -227 -302 -115 -185 200 0
-224 -225 -302 -179 -59 200 0
-224 -226 -302 -179 -69 200 0
-224 -227 -302 -179 -185 200 0
-225 -228 -303 -59 -27 42 0
-225 -229 -303 -59 -82 42 0
-225 -230 -303 -59 -152 42 0
-226 -228 -303 -69 -27 42 0
-226 -229 -303 -69 -82 42 0
-226 -230 -303 -69 -152 42 0
-227 -228 -303 -185 -27 42 0
-227 -229 -303 -185 -82 42 0
-227 -230 -303 -185 -152 42 0
-225 -228 -304 -59 -27 101 0
-225 -229 -304 -59 -82 101 0
-225 -230 -304 -59 -152 101 0
-226 -228 -304 -69 -27 101 0
-226 -229 -304 -69 -82 101 0
-226 -230 -304 -69 -152 101 0
-227 -228 -304 -185 -27 101 0
-227 -229 -304 -185 -82 101 0
-227 -230 -304 -185 -152 101 0
-225 -228 -305 -59 -27 134 0
-225 -229 -305 -59 -82 134 0
-225 -230 -305 -59 -152 134 0
-226 -228 -305 -69 -27 134 0
-226 -229 -305 -69 -82 134 0
-226 -230 -305 -69 -152 134 0
-227 -228 -305 -185 -27 134 0
-227 -229 -305 -185 -82 134 0
-227 -230 -305 -185 -152 134 0
-228 -231 -306 -27 -6 95 0
-228 -232 -306 -27 -7 95 0
-228 -233 -306 -27 -8 95 0
-229 -231 -306 -82 -6 95 0
-229 -232 -306 -82 -7 95 0
-229 -233 -306 -82 -8 95 0
-230 -231 -306 -152 -6 95 0
-230 -232 -306 -152 -7 95 0
-230 -233 -306 -152 -8 95 0
-228 -231 -307 -27 -6 126 0
-228 -232 -307 -27 -7 126 0
-228 -233 -307 -27 -8 126 0
-229 -231 -307 -82 -6 126 0
-229 -232 -307 -82 -7 126 0
-229 -233 -307 -82 -8 126 0
-230 -231 -307 -152 -6 126 0
-230 -232 -307 -152 -7 126 0
-230 -233 -307 -152 -8 126 0
-228 -231 -308 -27 -6 188 0
-228 -232 -308 -27 -7 188 0
-228 -233 -308 -27 -8 188 0
-229 -231 -308 -82 -6 188 0
-229 -232 -308 -82 -7 188 0
-229 -233 -308 -82 -8 188 0
-230 -231 -308 -152 -6 188 0
-230 -232 -308 -152 -7 188 0
-230 -233 -308 -152 -8 188 0
-231 -234 -309 -6 -3 8 0
-231 -235 -309 -6 -139 8 0
-231 -236 -309 -6 -167 8 0
-232 -234 -309 -7 -3 8 0
-232 -235 -309 -7 -139 8 0
-232 -236 -309 -7 -167 8 0
-231 -234 -310 -6 -3 12 0
-231 -235 -310 -6 -139 12 0
-231 -236 -310 -6 -167 12 0
-232 -234 -310 -7 -3 12 0
-232 -235 -310 -7 -139 12 0
-232 -236 -310 -7 -167 12 0
-233 -234 -310 -8 -3 12 0
-233 -235 -310 -8 -139 12 0
-233 -236 -310 -8 -167 12 0
-231 -234 -311 -6 -3 121 0
-231 -235 -311 -6 -139 121 0
-231 -236 -311 -6 -167 121 0
-232 -234 -311 -7 -3 121 0
-232 -235 -311 -7 -139 121 0
-232 -236 -311 -7 -167 121 0
-233 -234 -311 -8 -3 121 0
-233 -235 -311 -8 -139 121 0
-233 -236 -311 -8 -167 121 0
-234 -237 -312 -3 -56 79 0
-234 -238 -312 -3 -98 79 0
-234 -239 -312 -3 -176 79 0
-235 -237 -312 -139 -56 79 0
-235 -238 -312 -139 -98 79 0
-235 -239 -312 -139 -176 79 0
-236 -237 -312 -167 -56 79 0
-236 -238 -312 -167 -98 79 0
-236 -239 -312 -167 -176 79 0
-234 -237 -313 -3 -56 158 0
-234 -238 -313 -3 -98 158 0
-234 -239 -313 -3 -176 158 0
-235 -237 -313 -139 -56 158 0
-235 -238 -313 -139 -98 158 0
-235 -239 -313 -139 -176 158 0
-236 -237 -313 -167 -56 158 0
-236 -238 -313 -167 -98 158 0
-236 -239 -313 -167 -176 158 0
-234 -237 -314 -3 -56 181 0
-234 -238 -314 -3 -98 181 0
-234 -239 -314 -3 -176 181 0
-235 -237 -314 -139 -56 181 0
-235 -238 -314 -139 -98 181 0
-235 -239 -314 -139 -176 181 0
-236 -237 -314 -167 -56 181 0
-236 -238 -314 -167 -98 181 0
-236 -239 -314 -167 -176 181 0
-237 -240 -315 -56 -8 101 0
-237 -241 -315 -56 -109 101 0
-237 -242 -315 -56 -186 101 0
-238 -240 -315 -98 -8 101 0
-238 -241 -315 -98 -109 101 0
-238 -242 -315 -98 -186 101 0
-239 -240 -315 -176 -8 101 0
-239 -241 -315 -176 -109 101 0
-239 -242 -315 -176 -186 101 0
-237 -240 -316 -56 -8 149 0
-237 -241 -316 -56 -109 149 0
-237 -242 -316 -56 -186 149 0
-238 -240 -316 -98 -8 149 0
-238 -241 -316 -98 -109 149 0
-238 -242 -316 -98 -186 149 0
-239 -240 -316 -176 -8 149 0
-239 -241 -316 -176 -109 149 0
-239 -242 -316 -176 -186 149 0
-237 -240 -317 -56 -8 152 0
-237 -241 -317 -56 -109 152 0
-237 -242 -317 -56 -186 152 0
-238 -240 -317 -98 -8 152 0
-238 -241 -317 -98 -109 152 0
-238 -242 -317 -98 -186 152 0
-239 -240 -317 -176 -8 152 0
-239 -241 -317 -176 -109 152 0
-239 -242 -317 -176 -186 152 0
-240 -243 -318 -8 -57 44 0
-240 -244 -318 -8 -136 44 0
-240 -245 -318 -8 -196 44 0
-241 -243 -318 -109 -57 44 0
-241 -244 -318 -109 -136 44 0
-241 -245 -318 -109 -196 44 0
-242 -243 -318 -186 -57 44 0
-242 -244 -318 -186 -136 44 0
-242 -245 -318 -186 -196 44 0
-240 -243 -319 -8 -57 129 0
-240 -244 -319 -8 -136 129 0
-240 -245 -319 -8 -196 129 0
-241 -243 -319 -109 -57 129 0
-241 -244 -319 -109 -136 129 0
-241 -245 -319 -109 -196 129 0
-242 -243 -319 -186 -57 129 0
-242 -244 -319 -186 -136 129 0
-242 -245 -319 -186 -196 129 0
-240 -243 -320 -8 -57 166 0
-240 -244 -320 -8 -136 166 0
-240 -245 -320 -8 -196 166 0
-241 -243 -320 -109 -57 166 0
-241 -244 -320 -109 -136 166 0
-241 -245 -320 -109 -196 166 0
-242 -243 -320 -186 -57 166 0
-242 -244 -320 -186 -136 166 0
-242 -245 -320 -186 -196 166 0
-243 -246 -321 -57 -113 4 0
-243 -247 -321 -57 -127 4 0
-243 -248 -321 -57 -142 4 0
-244 -246 -321 -136 -113 4 0
-244 -247 -321 -136 -127 4 0
-244 -248 -321 -136 -142 4 0
-245 -246 -321 -196 -113 4 0
-245 -247 -321 -196 -127 4 0
-245 -248 -321 -196 -142 4 0
-243 -246 -322 -57 -113 59 0
-243 -247 -322 -57 -127 59 0
-243 -248 -322 -57 -142 59 0
-244 -246 -322 -136 -113 59 0
-244 -247 -322 -136 -127 59 0
-244 -248 -322 -136 -142 59 0
-245 -246 -322 -196 -113 59 0
-245 -247 -322 -196 -127 59 0
-245 -248 -322 -196 -142 59 0
-243 -246 -323 -57 -113 198 0
-243 -247 -323 -57 -127 198 0
-243 -248 -323 -57 -142 198 0
-244 -246 -323 -136 -113 198 0
-244 -247 -323 -136 -127 198 0
-244 -248 -323 -136 -142 198 0
-245 -246 -323 -196 -113 198 0
-245 -247 -323 -196 -127 198 0
-245 -248 -323 -196 -142 198 0
-246 -249 -324 -113 -60 52 0
-246 -250 -324 -113 -89 52 0
-246 -251 -324 -113 -174 52 0
-247 -249 -324 -127 -60 52 0
-247 -250 -324 -127 -89 52 0
-247 -251 -324 -127 -174 52 0
-248 -249 -324 -142 -60 52 0
-248 -250 -324 -142 -89 52 0
-248 -251 -324 -142 -174 52 0
-246 -249 -325 -113 -60 139 0
-246 -250 -325 -113 -89 139 0
-246 -251 -325 -113 -174 139 0
-247 -249 -325 -127 -60 139 0
-247 -250 -325 -127 -89 139 0
-247 -251 -325 -127 -174 139 0
-248 -249 -325 -142 -60 139 0
-248 -250 -325 -142 -89 139 0
-248 -251 -325 -142 -174 139 0
-246 -249 -326 -113 -60 141 0
-246 -250 -326 -113 -89 141 0
-246 -251 -326 -113 -174 141 0
-247 -249 -326 -127 -60 141 0
-247 -250 -326 -127 -89 141 0
-247 -251 -326 -127 -174 141 0
-248 -249 -326 -142 -60 141 0
-248 -250 -326 -142 -89 141 0
-248 -251 -326 -142 -174 141 0
-250 -252 -327 -89 -57 60 0
-250 -253 -327 -89 -118 60 0
-250 -254 -327 -89 -195 60 0
-251 -252 -327 -174 -57 60 0
-251 -253 -327 -174 -118 60 0
-251 -254 -327 -174 -195 60 0
-249 -252 -328 -60 -57 104 0
-249 -253 -328 -60 -118 104 0
-249 -254 -328 -60 -195 104 0
-250 -252 -328 -89 -57 104 0
-250 -253 -328 -89 -118 104 0
-250 -254 -328 -89 -195 104 0
-251 -252 -328 -174 -57 104 0
-251 -253 -328 -174 -118 104 0
-251 -254 -328 -174 -195 104 0
-249 -252 -329 -60 -57 132 0
-249 -253 -329 -60 -118 132 0
-249 -254 -329 -60 -195 132 0
-250 -252 -329 -89 -57 132 0
-250 -253 -329 -89 -118 132 0
-250 -254 -329 -89 -195 132 0
-251 -252 -329 -174 -57 132 0
-251 -253 -329 -174 -118 132 0
-251 -254 -329 -174 -195 132 0
-252 -255 -330 -57 -6 89 0
-252 -256 -330 -57 -75 89 0
-252 -257 -330 -57 -107 89 0
-253 -255 -330 -118 -6 89 0
-253 -256 -330 -118 -75 89 0
-253 -257 -330 -118 -107 89 0
-254 -255 -330 -195 -6 89 0
-254 -256 -330 -195 -75 89 0
-254 -257 -330 -195 -107 89 0
-252 -255 -331 -57 -6 91 0
-252 -256 -331 -57 -75 91 0
-252 -257 -331 -57 -107 91 0
-253 -255 -331 -118 -6 91 0
-253 -256 -331 -118 -75 91 0
-253 -257 -331 -118 -107 91 0
-254 -255 -331 -195 -6 91 0
-254 -256 -331 -195 -75 91 0
-254 -257 -331 -195 -107 91 0
-252 -255 -332 -57 -6 148 0
-252 -256 -332 -57 -75 148 0
-252 -257 -332 -57 -107 148 0
-253 -255 -332 -118 -6 148 0
-253 -256 -332 -118 -75 148 0
-253 -257 -332 -118 -107 148 0
-254 -255 -332 -195 -6 148 0
-254 -256 -332 -195 -75 148 0
-254 -257 -332 -195 -107 148 0
-255 -258 -333 -6 -26 69 0
-255 -259 -333 -6 -143 69 0
-255 -260 -333 -6 -165 69 0
-256 -258 -333 -75 -26 69 0
-256 -259 -333 -75 -143 69 0
-256 -260 -333 -75 -165 69 0
-257 -258 -333 -107 -26 69 0
-257 -259 -333 -107 -143 69 0
-257 -260 -333 -107 -165 69 0
-255 -258 -334 -6 -26 118 0
-255 -259 -334 -6 -143 118 0
-255 -260 -334 -6 -165 118 0
-256 -258 -334 -75 -26 118 0
-256 -259 -334 -75 -143 118 0
-256 -260 -334 -75 -165 118 0
-257 -258 -334 -107 -26 118 0
-257 -259 -334 -107 -143 118 0
-257 -260 -334 -107 -165 118 0
-255 -258 -335 -6 -26 169 0
-255 -259 -335 -6 -143 169 0
-255 -260 -335 -6 -165 169 0
-256 -258 -335 -75 -26 169 0
-256 -259 -335 -75 -143 169 0
-256 -260 -335 -75 -165 169 0
-257 -258 -335 -107 -26 169 0
-257 -259 -335 -107 -143 169 0
-257 -260 -335 -107 -165 169 0
-258 -261 -336 -26 -48 141 0
-258 -262 -336 -26 -162 141 0
-258 -263 -336 -26 -186 141 0
-259 -261 -336 -143 -48 141 0
-259 -262 -336 -143 -162 141 0
-259 -263 -336 -143 -186 141 0
-260 -261 -336 -165 -48 141 0
-260 -262 -336 -165 -162 141 0
-260 -263 -336 -165 -186 141 0
-258 -261 -337 -26 -48 156 0
-258 -262 -337 -26 -162 156 0
-258 -263 -337 -26 -186 156 0
-259 -261 -337 -143 -48 156 0
-259 -262 -337 -143 -162 156 0
-259 -263 -337 -143 -186 156 0
-260 -261 -337 -165 -48 156 0
-260 -262 -337 -165 -162 156 0
-260 -263 -337 -165 -186 156 0
-258 -261 -338 -26 -48 187 0
-258 -262 -338 -26 -162 187 0
-258 -263 -338 -26 -186 187 0
-259 -261 -338 -143 -48 187 0
-259 -262 -338 -143 -162 187 0
-259 -263 -338 -143 -186 187 0
-260 -261 -338 -165 -48 187 0
-260 -262 -338 -165 -162 187 0
-260 -263 -338 -165 -186 187 0
-261 -264 -339 -48 -31 2 0
-261 -265 -339 -48 -76 2 0
-261 -266 -339 -48 -191 2 0
-262 -264 -339 -162 -31 2 0
-262 -265 -339 -162 -76 2 0
-262 -266 -339 -162 -191 2 0
-263 -264 -339 -186 -31 2 0
-263 -265 -339 -186 -76 2 0
-263 -266 -339 -186 -191 2 0
-261 -264 -340 -48 -31 99 0
-261 -265 -340 -48 -76 99 0
-261 -266 -340 -48 -191 99 0
-262 -264 -340 -162 -31 99 0
-262 -265 -340 -162 -76 99 0
-262 -266 -340 -162 -191 99 0
-263 -264 -340 -186 -31 99 0
-263 -265 -340 -186 -76 99 0
-263 -266 -340 -186 -191 99 0
-261 -264 -341 -48 -31 190 0
-261 -265 -341 -48 -76 190 0
-261 -266 -341 -48 -191 190 0
-262 -264 -341 -162 -31 190 0
-262 -265 -341 -162 -76 190 0
-262 -266 -341 -162 -191 190 0
-263 -264 -341 -186 -31 190 0
-263 -265 -341 -186 -76 190 0
-263 -266 -341 -186 -191 190 0
-264 -267 -342 -31 -86 34 0
-264 -268 -342 -31 -183 34 0
-264 -269 -342 -31 -185 34 0
-265 -267 -342 -76 -86 34 0
-265 -268 -342 -76 -183 34 0
-265 -269 -342 -76 -185 34 0
-266 -267 -342 -191 -86 34 0
-266 -268 -342 -191 -183 34 0
-266 -269 -342 -191 -185 34 0
-264 -267 -343 -31 -86 132 0
-264 -268 -343 -31 -183 132 0
-264 -269 -343 -31 -185 132 0
-265 -267 -343 -76 -86 132 0
-265 -268 -343 -76 -183 132 0
-265 -269 -343 -76 -185 132 0
-266 -267 -343 -191 -86 132 0
-266 -268 -343 -191 -183 132 0
-266 -269 -343 -191 -185 132 0
-264 -267 -344 -31 -86 133 0
-264 -268 -344 -31 -183 133 0
-264 -269 -344 -31 -185 133 0
-265 -267 -344 -76 -86 133 0
-265 -268 -344 -76 -183 133 0
-265 -269 -344 -76 -185 133 0
-266 -267 -344 -191 -86 133 0
-266 -268 -344 -191 -183 133 0
-266 -269 -344 -191 -185 133 0
-267 -270 -345 -86 -109 53 0
-267 -271 -345 -86 -129 53 0
-267 -272 -345 -86 -130 53 0
-268 -270 -345 -183 -109 53 0
-268 -271 -345 -183 -129 53 0
-268 -272 -345 -183 -130 53 0
-269 -270 -345 -185 -109 53 0
-269 -271 -345 -185 -129 53 0
-269 -272 -345 -185 -130 53 0
-267 -270 -346 -86 -109 144 0
-267 -271 -346 -86 -129 144 0
-267 -272 -346 -86 -130 144 0
-268 -270 -346 -183 -109 144 0
-268 -271 -346 -183 -129 144 0
-268 -272 -346 -183 -130 144 0
-269 -270 -346 -185 -109 144 0
-269 -271 -346 -185 -129 144 0
-269 -272 -346 -185 -130 144 0
-267 -270 -347 -86 -109 200 0
-267 -271 -347 -86 -129 200 0
-267 -272 -347 -86 -130 200 0
-268 -270 -347 -183 -109 200 0
-268 -271 -347 -183 -129 200 0
-268 -272 -347 -183 -130 200 0
-269 -270 -347 -185 -109 200 0
-269 -271 -347 -185 -129 200 0
-269 -272 -347 -185 -130 200 0
-270 -273 -348 -109 -49 15 0
-270 -274 -348 -109 -78 15 0
-270 -275 -348 -109 -172 15 0
-271 -273 -348 -129 -49 15 0
-271 -274 -348 -129 -78 15 0
-271 -275 -348 -129 -172 15 0
-272 -273 -348 -130 -49 15 0
-272 -274 -348 -130 -78 15 0
-272 -275 -348 -130 -172 15 0
-270 -273 -349 -109 -49 110 0
-270 -274 -349 -109 -78 110 0
-270 -275 -349 -109 -172 110 0
-271 -273 -349 -129 -49 110 0
-271 -274 -349 -129 -78 110 0
-271 -275 -349 -129 -172 110 0
-272 -273 -349 -130 -49 110 0
-272 -274 -349 -130 -78 110 0
-272 -275 -349 -130 -172 110 0
-270 -273 -350 -109 -49 124 0
-270 -274 -350 -109 -78 124 0
-270 -275 -350 -109 -172 124 0
-271 -273 -350 -129 -49 124 0
-271 -274 -350 -129 -78 124 0
-271 -275 -350 -129 -172 124 0
-272 -273 -350 -130 -49 124 0
-272 -274 -350 -130 -78 124 0
-272 -275 -350 -130 -172 124 0
-273 -276 -351 -49 -73 94 0
-273 -277 -351 -49 -128 94 0
-273 -278 -351 -49 -151 94 0
-274 -276 -351 -78 -73 94 0
-274 -277 -351 -78 -128 94 0
-274 -278 -351 -78 -151 94 0
-275 -276 -351 -172 -73 94 0
-275 -277 -351 -172 -128 94 0
-275 -278 -351 -172 -151 94 0
-273 -276 -352 -49 -73 142 0
-273 -277 -352 -49 -128 142 0
-273 -278 -352 -49 -151 142 0
-274 -276 -352 -78 -73 142 0
-274 -277 -352 -78 -128 142 0
-274 -278 -352 -78 -151 142 0
-275 -276 -352 -172 -73 142 0
-275 -277 -352 -172 -128 142 0
-275 -278 -352 -172 -151 142 0
-273 -276 -353 -49 -73 146 0
-273 -277 -353 -49 -128 146 0
-273 -278 -353 -49 -151 146 0
-274 -276 -353 -78 -73 146 0
-274 -277 -353 -78 -128 146 0
-274 -278 -353 -78 -151 146 0
-275 -276 -353 -172 -73 146 0
-275 -277 -353 -172 -128 146 0
-275 -278 -353 -172 -151 146 0
-279 -282 -354 -101 -9 52 0
-279 -283 -354 -101 -63 52 0
-279 -284 -354 -101 -123 52 0
-280 -282 -354 -130 -9 52 0
-280 -283 -354 -130 -63 52 0
-280 -284 -354 -130 -123 52 0
-281 -282 -354 -151 -9 52 0
-281 -283 -354 -151 -63 52 0
-281 -284 -354 -151 -123 52 0
-279 -282 -355 -101 -9 106 0
-279 -283 -355 -101 -63 106 0
-279 -284 -355 -101 -123 106 0
-280 -282 -355 -130 -9 106 0
-280 -283 -355 -130 -63 106 0
-280 -284 -355 -130 -123 106 0
-281 -282 -355 -151 -9 106 0
-281 -283 -355 -151 -63 106 0
-281 -284 -355 -151 -123 106 0
-279 -282 -356 -101 -9 130 0
-279 -283 -356 -101 -63 130 0
-279 -284 -356 -101 -123 130 0
-281 -282 -356 -151 -9 130 0
-281 -283 -356 -151 -63 130 0
-281 -284 -356 -151 -123 130 0
-282 -285 -357 -9 -104 92 0
-282 -286 -357 -9 -107 92 0
-282 -287 -357 -9 -191 92 0
-283 -285 -357 -63 -104 92 0
-283 -286 -357 -63 -107 92 0
-283 -287 -357 -63 -191 92 0
-284 -285 -357 -123 -104 92 0
-284 -286 -357 -123 -107 92 0
-284 -287 -357 -123 -191 92 0
-282 -285 -358 -9 -104 107 0
-282 -287 -358 -9 -191 107 0
-283 -285 -358 -63 -104 107 0
-283 -287 -358 -63 -191 107 0
-284 -285 -358 -123 -104 107 0
-284 -287 -358 -123 -191 107 0
-282 -285 -359 -9 -104 125 0
-282 -286 -359 -9 -107 125 0
-282 -287 -359 -9 -191 125 0
-283 -285 -359 -63 -104 125 0
-283 -286 -359 -63 -107 125 0
-283 -287 -359 -63 -191 125 0
-284 -285 -359 -123 -104 125 0
-284 -286 -359 -123 -107 125 0
-284 -287 -359 -123 -191 125 0
-285 -288 -360 -104 -45 1 0
-285 -289 -360 -104 -94 1 0
-285 -290 -360 -104 -171 1 0
-286 -288 -360 -107 -45 1 0
-286 -289 -360 -107 -94 1 0
-286 -290 -360 -107 -171 1 0
-287 -288 -360 -191 -45 1 0
-287 -289 -360 -191 -94 1 0
-287 -290 -360 -191 -171 1 0
-285 -288 -361 -104 -45 89 0
-285 -289 -361 -104 -94 89 0
-285 -290 -361 -104 -171 89 0
-286 -288 -361 -107 -45 89 0
-286 -289 -361 -107 -94 89 0
-286 -290 -361 -107 -171 89 0
-287 -288 -361 -191 -45 89 0
-287 -289 -361 -191 -94 89 0
-287 -290 -361 -191 -171 89 0
-285 -288 -362 -104 -45 138 0
-285 -289 -362 -104 -94 138 0
-285 -290 -362 -104 -171 138 0
-286 -288 -362 -107 -45 138 0
-286 -289 -362 -107 -94 138 0
-286 -290 -362 -107 -171 138 0
-287 -288 -362 -191 -45 138 0
-287 -289 -362 -191 -94 138 0
-287 -290 -362 -191 -171 138 0
-288 -291 -363 -45 -141 139 0
-288 -292 -363 -45 -180 139 0
-288 -293 -363 -45 -199 139 0
-289 -291 -363 -94 -141 139 0
-289 -292 -363 -94 -180 139 0
-289 -293 -363 -94 -199 139 0
-290 -291 -363 -171 -141 139 0
-290 -292 -363 -171 -180 139 0
-290 -293 -363 -171 -199 139 0
-288 -291 -364 -45 -141 157 0
-288 -292 -364 -45 -180 157 0
-288 -293 -364 -45 -199 157 0
-289 -291 -364 -94 -141 157 0
-289 -292 -364 -94 -180 157 0
-289 -293 -364 -94 -199 157 0
-290 -291 -364 -171 -141 157 0
-290 -292 -364 -171 -180 157 0
-290 -293 -364 -171 -199 157 0
-288 -291 -365 -45 -141 160 0
-288 -292 -365 -45 -180 160 0
-288 -293 -365 -45 -199 160 0
-289 -291 -365 -94 -141 160 0
-289 -292 -365 -94 -180 160 0
-289 -293 -365 -94 -199 160 0
-290 -291 -365 -171 -141 160 0
-290 -292 -365 -171 -180 160 0
-290 -293 -365 -171 -199 160 0
-291 -294 -366 -141 -96 85 0
-291 -295 -366 -141 -173 85 0
-291 -296 -366 -141 -189 85 0
-292 -294 -366 -180 -96 85 0
-292 -295 -366 -180 -173 85 0
-292 -296 -366 -180 -189 85 0
-293 -294 -366 -199 -96 85 0
-293 -295 -366 -199 -173 85 0
-293 -296 -366 -199 -189 85 0
-291 -294 -367 -141 -96 118 0
-291 -295 -367 -141 -173 118 0
-291 -296 -367 -141 -189 118 0
-292 -294 -367 -180 -96 118 0
-292 -295 -367 -180 -173 118 0
-292 -296 -367 -180 -189 118 0
-293 -294 -367 -199 -96 118 0
-293 -295 -367 -199 -173 118 0
-293 -296 -367 -199 -189 118 0
-291 -294 -368 -141 -96 154 0
-291 -295 -368 -141 -173 154 0
-291 -296 -368 -141 -189 154 0
-292 -294 -368 -180 -96 154 0
-292 -295 -368 -180 -173 154 0
-292 -296 -368 -180 -189 154 0
-293 -294 -368 -199 -96 154 0
-293 -295 -368 -199 -173 154 0
-293 -296 -368 -199 -189 154 0
-294 -297 -369 -96 -23 8 0
-294 -298 -369 -96 -113 8 0
-294 -299 -369 -96 -170 8 0
-295 -297 -369 -173 -23 8 0
-295 -298 -369 -173 -113 8 0
-295 -299 -369 -173 -170 8 0
-296 -297 -369 -189 -23 8 0
-296 -298 -369 -189 -113 8 0
-296 -299 -369 -189 -170 8 0
-294 -297 -370 -96 -23 59 0
-294 -298 -370 -96 -113 59 0
-294 -299 -370 -96 -170 59 0
-295 -297 -370 -173 -23 59 0
-295 -298 -370 -173 -113 59 0
-295 -299 -370 -173 -170 59 0
-296 -297 -370 -189 -23 59 0
-296 -298 -370 -189 -113 59 0
-296 -299 -370 -189 -170 59 0
-294 -297 -371 -96 -23 163 0
-294 -298 -371 -96 -113 163 0
-294 -299 -371 -96 -170 163 0
-295 -297 -371 -173 -23 163 0
-295 -298 -371 -173 -113 163 0
-295 -299 -371 -173 -170 163 0
-296 -297 -371 -189 -23 163 0
-296 -298 -371 -189 -113 163 0
-296 -299 -371 -189 -170 163 0
-297 -300 -372 -23 -28 46 0
-297 -301 -372 -23 -131 46 0
-297 -302 -372 -23 -200 46 0
-298 -300 -372 -113 -28 46 0
-298 -301 -372 -113 -131 46 0
-298 -302 -372 -113 -200 46 0
-299 -300 -372 -170 -28 46 0
-299 -301 -372 -170 -131 46 0
-299 -302 -372 -170 -200 46 0
-297 -300 -373 -23 -28 141 0
-297 -301 -373 -23 -131 141 0
-297 -302 -373 -23 -200 141 0
-298 -300 -373 -113 -28 141 0
-298 -301 -373 -113 -131 141 0
-298 -302 -373 -113 -200 141 0
-299 -300 -373 -170 -28 141 0
-299 -301 -373 -170 -131 141 0
-299 -302 -373 -170 -200 141 0
-297 -300 -374 -23 -28 150 0
-297 -301 -374 -23 -131 150 0
-297 -302 -374 -23 -200 150 0
-298 -300 -374 -113 -28 150 0
-298 -301 -374 -113 -131 150 0
-298 -302 -374 -113 -200 150 0
-299 -300 -374 -170 -28 150 0
-299 -301 -374 -170 -131 150 0
-299 -302 -374 -170 -200 150 0
-300 -303 -375 -28 -42 24 0
-300 -304 -375 -28 -101 24 0
-300 -305 -375 -28 -134 24 0
-301 -303 -375 -131 -42 24 0
-301 -304 -375 -131 -101 24 0
-301 -305 -375 -131 -134 24 0
-302 -303 -375 -200 -42 24 0
-302 -304 -375 -200 -101 24 0
-302 -305 -375 -200 -134 24 0
-300 -303 -376 -28 -42 47 0
-300 -304 -376 -28 -101 47 0
-300 -305 -376 -28 -134 47 0
-301 -303 -376 -131 -42 47 0
-301 -304 -376 -131 -101 47 0
-301 -305 -376 -131 -134 47 0
-302 -303 -376 -200 -42 47 0
-302 -304 -376 -200 -101 47 0
-302 -305 -376 -200 -134 47 0
-300 -303 -377 -28 -42 142 0
-300 -304 -377 -28 -101 142 0
-300 -305 -377 -28 -134 142 0
-301 -303 -377 -131 -42 142 0
-301 -304 -377 -131 -101 142 0
-301 -305 -377 -131 -134 142 0
-302 -303 -377 -200 -42 142 0
-302 -304 -377 -200 -101 142 0
-302 -305 -377 -200 -134 142 0
-303 -306 -378 -42 -95 9 0
-303 -307 -378 -42 -126 9 0
-303 -308 -378 -42 -188 9 0
-304 -306 -378 -101 -95 9 0
-304 -307 -378 -101 -126 9 0
-304 -308 -378 -101 -188 9 0
-305 -306 -378 -134 -95 9 0
-305 -307 -378 -134 -126 9 0
-305 -308 -378 -134 -188 9 0
-303 -306 -379 -42 -95 66 0
-303 -307 -379 -42 -126 66 0
-303 -308 -379 -42 -188 66 0
-304 -306 -379 -101 -95 66 0
-304 -307 -379 -101 -126 66 0
-304 -308 -379 -101 -188 66 0
-305 -306 -379 -134 -95 66 0
-305 -307 -379 -134 -126 66 0
-305 -308 -379 -134 -188 66 0
-303 -306 -380 -42 -95 173 0
-303 -307 -380 -42 -126 173 0
-303 -308 -380 -42 -188 173 0
-304 -306 -380 -101 -95 173 0
-304 -307 -380 -101 -126 173 0
-304 -308 -380 -101 -188 173 0
-305 -306 -380 -134 -95 173 0
-305 -307 -380 -134 -126 173 0
-305 -308 -380 -134 -188 173 0
-306 -309 -381 -95 -8 5 0
-306 -310 -381 -95 -12 5 0
-306 -311 -381 -95 -121 5 0
-307 -309 -381 -126 -8 5 0
-307 -310 -381 -126 -12 5 0
-307 -311 -381 -126 -121 5 0
-308 -309 -381 -188 -8 5 0
-308 -310 -381 -188 -12 5 0
-308 -311 -381 -188 -121 5 0
-306 -309 -382 -95 -8 19 0
-306 -310 -382 -95 -12 19 0
-306 -311 -382 -95 -121 19 0
-307 -309 -382 -126 -8 19 0
-307 -310 -382 -126 -12 19 0
-307 -311 -382 -126 -121 19 0
-308 -309 -382 -188 -8 19 0
-308 -310 -382 -188 -12 19 0
-308 -311 -382 -188 -121 19 0
-306 -309 -383 -95 -8 22 0
-306 -310 -383 -95 -12 22 0
-306 -311 -383 -95 -121 22 0
-307 -309 -383 -126 -8 22 0
-307 -310 -383 -126 -12 22 0
-307 -311 -383 -126 -121 22 0
-308 -309 -383 -188 -8 22 0
-308 -310 -383 -188 -12 22 0
-308 -311 -383 -188 -121 22 0
-309 -312 -384 -8 -79 4 0
-309 -313 -384 -8 -158 4 0
-309 -314 -384 -8 -181 4 0
-310 -312 -384 -12 -79 4 0
-310 -313 -384 -12 -158 4 0
-310 -314 -384 -12 -181 4 0
-311 -312 -384 -121 -79 4 0
-311 -313 -384 -121 -158 4 0
-311 -314 -384 -121 -181 4 0
-309 -312 -385 -8 -79 116 0
-309 -313 -385 -8 -158 116 0
-309 -314 -385 -8 -181 116 0
-310 -312 -385 -12 -79 116 0
-310 -313 -385 -12 -158 116 0
-310 -314 -385 -12 -181 116 0
-311 -312 -385 -121 -79 116 0
-311 -313 -385 -121 -158 116 0
-311 -314 -385 -121 -181 116 0
-309 -312 -386 -8 -79 194 0
-309 -313 -386 -8 -158 194 0
-309 -314 -386 -8 -181 194 0
-310 -312 -386 -12 -79 194 0
-310 -313 -386 -12 -158 194 0
-310 -314 -386 -12 -181 194 0
-311 -312 -386 -121 -79 194 0
-311 -313 -386 -121 -158 194 0
-311 -314 -386 -121 -181 194 0
-312 -315 -387 -79 -101 64 0
-312 -316 -387 -79 -149 64 0
-312 -317 -387 -79 -152 64 0
-313 -315 -387 -158 -101 64 0
-313 -316 -387 -158 -149 64 0
-313 -317 -387 -158 -152 64 0
-314 -315 -387 -181 -101 64 0
-314 -316 -387 -181 -149 64 0
-314 -317 -387 -181 -152 64 0
-312 -315 -388 -79 -101 72 0
-312 -316 -388 -79 -149 72 0
-312 -317 -388 -79 -152 72 0
-313 -315 -388 -158 -101 72 0
-313 -316 -388 -158 -149 72 0
-313 -317 -388 -158 -152 72 0
-314 -315 -388 -181 -101 72 0
-314 -316 -388 -181 -149 72 0
-314 -317 -388 -181 -152 72 0
-312 -315 -389 -79 -101 194 0
-312 -316 -389 -79 -149 194 0
-312 -317 -389 -79 -152 194 0
-313 -315 -389 -158 -101 194 0
-313 -316 -389 -158 -149 194 0
-313 -317 -389 -158 -152 194 0
-314 -315 -389 -181 -101 194 0
-314 -316 -389 -181 -149 194 0
-314 -317 -389 -181 -152 194 0
-315 -318 -390 -101 -44 29 0
-315 -319 -390 -101 -129 29 0
-315 -320 -390 -101 -166 29 0
-316 -318 -390 -149 -44 29 0
-316 -319 -390 -149 -129 29 0
-316 -320 -390 -149 -166 29 0
-317 -318 -390 -152 -44 29 0
-317 -319 -390 -152 -129 29 0
-317 -320 -390 -152 -166 29 0
-315 -318 -391 -101 -44 69 0
-315 -319 -391 -101 -129 69 0
-315 -320 -391 -101 -166 69 0
-316 -318 -391 -149 -44 69 0
-316 -319 -391 -149 -129 69 0
-316 -320 -391 -149 -166 69 0
-317 -318 -391 -152 -44 69 0
-317 -319 -391 -152 -129 69 0
-317 -320 -391 -152 -166 69 0
-315 -318 -392 -101 -44 160 0
-315 -319 -392 -101 -129 160 0
-315 -320 -392 -101 -166 160 0
-316 -318 -392 -149 -44 160 0
-316 -319 -392 -149 -129 160 0
-316 -320 -392 -149 -166 160 0
-317 -318 -392 -152 -44 160 0
-317 -319 -392 -152 -129 160 0
-317 -320 -392 -152 -166 160 0
-318 -321 -393 -44 -4 48 0
-318 -322 -393 -44 -59 48 0
-318 -323 -393 -44 -198 48 0
-319 -321 -393 -129 -4 48 0
-319 -322 -393 -129 -59 48 0
-319 -323 -393 -129 -198 48 0
-320 -321 -393 -166 -4 48 0
-320 -322 -393 -166 -59 48 0
-320 -323 -393 -166 -198 48 0
-318 -321 -394 -44 -4 75 0
-318 -322 -394 -44 -59 75 0
-318 -323 -394 -44 -198 75 0
-319 -321 -394 -129 -4 75 0
-319 -322 -394 -129 -59 75 0
-319 -323 -394 -129 -198 75 0
-320 -321 -394 -166 -4 75 0
-320 -322 -394 -166 -59 75 0
-320 -323 -394 -166 -198 75 0
-318 -321 -395 -44 -4 89 0
-318 -322 -395 -44 -59 89 0
-318 -323 -395 -44 -198 89 0
-319 -321 -395 -129 -4 89 0
-319 -322 -395 -129 -59 89 0
-319 -323 -395 -129 -198 89 0
-320 -321 -395 -166 -4 89 0
-320 -322 -395 -166 -59 89 0
-320 -323 -395 -166 -198 89 0
-321 -324 -396 -4 -52 18 0
-321 -325 -396 -4 -139 18 0
-321 -326 -396 -4 -141 18 0
-322 -324 -396 -59 -52 18 0
-322 -325 -396 -59 -139 18 0
-322 -326 -396 -59 -141 18 0
-323 -324 -396 -198 -52 18 0
-323 -325 -396 -198 -139 18 0
-323 -326 -396 -198 -141 18 0
-321 -324 -397 -4 -52 41 0
-321 -325 -397 -4 -139 41 0
-321 -326 -397 -4 -141 41 0
-322 -324 -397 -59 -52 41 0
-322 -325 -397 -59 -139 41 0
-322 -326 -397 -59 -141 41 0
-323 -324 -397 -198 -52 41 0
-323 -325 -397 -198 -139 41 0
-323 -326 -397 -198 -141 41 0
-321 -324 -398 -4 -52 43 0
-321 -325 -398 -4 -139 43 0
-321 -326 -398 -4 -141 43 0
-322 -324 -398 -59 -52 43 0
-322 -325 -398 -59 -139 43 0
-322 -326 -398 -59 -141 43 0
-323 -324 -398 -198 -52 43 0
-323 -325 -398 -198 -139 43 0
-323 -326 -398 -198 -141 43 0
-324 -327 -399 -52 -60 44 0
-324 -328 -399 -52 -104 44 0
-324 -329 -399 -52 -132 44 0
-325 -327 -399 -139 -60 44 0
-325 -328 -399 -139 -104 44 0
-325 -329 -399 -139 -132 44 0
-326 -327 -399 -141 -60 44 0
-326 -328 -399 -141 -104 44 0
-326 -329 -399 -141 -132 44 0
-324 -327 -400 -52 -60 66 0
-324 -328 -400 -52 -104 66 0
-324 -329 -400 -52 -132 66 0
-325 -327 -400 -139 -60 66 0
-325 -328 -400 -139 -104 66 0
-325 -329 -400 -139 -132 66 0
-326 -327 -400 -141 -60 66 0
-326 -328 -400 -141 -104 66 0
-326 -329 -400 -141 -132 66 0
-324 -327 -401 -52 -60 136 0
-324 -328 -401 -52 -104 136 0
-324 -329 -401 -52 -132 136 0
-325 -327 -401 -139 -60 136 0
-325 -328 -401 -139 -104 136 0
-325 -329 -401 -139 -132 136 0
-326 -327 -401 -141 -60 136 0
-326 -328 -401 -141 -104 136 0
-326 -329 -401 -141 -132 136 0
-327 -330 -402 -60 -89 70 0
-327 -331 -402 -60 -91 70 0
-327 -332 -402 -60 -148 70 0
-328 -330 -402 -104 -89 70 0
-328 -331 -402 -104 -91 70 0
-328 -332 -402 -104 -148 70 0
-329 -330 -402 -132 -89 70 0
-329 -331 -402 -132 -91 70 0
-329 -332 -402 -132 -148 70 0
-327 -330 -403 -60 -89 166 0
-327 -331 -403 -60 -91 166 0
-327 -332 -403 -60 -148 166 0
-328 -330 -403 -104 -89 166 0
-328 -331 -403 -104 -91 166 0
-328 -332 -403 -104 -148 166 0
-329 -330 -403 -132 -89 166 0
-329 -331 -403 -132 -91 166 0
-329 -332 -403 -132 -148 166 0
-327 -330 -404 -60 -89 169 0
-327 -331 -404 -60 -91 169 0
-327 -332 -404 -60 -148 169 0
-328 -330 -404 -104 -89 169 0
-328 -331 -404 -104 -91 169 0
-328 -332 -404 -104 -148 169 0
-329 -330 -404 -132 -89 169 0
-329 -331 -404 -132 -91 169 0
-329 -332 -404 -132 -148 169 0
-330 -333 -405 -89 -69 76 0
-330 -334 -405 -89 -118 76 0
-330 -335 -405 -89 -169 76 0
-331 -333 -405 -91 -69 76 0
-331 -334 -405 -91 -118 76 0
-331 -335 -405 -91 -169 76 0
-332 -333 -405 -148 -69 76 0
-332 -334 -405 -148 -118 76 0
-332 -335 -405 -148 -169 76 0
-330 -333 -406 -89 -69 117 0
-330 -334 -406 -89 -118 117 0
-330 -335 -406 -89 -169 117 0
-331 -333 -406 -91 -69 117 0
-331 -334 -406 -91 -118 117 0
-331 -335 -406 -91 -169 117 0
-332 -333 -406 -148 -69 117 0
-332 -334 -406 -148 -118 117 0
-332 -335 -406 -148 -169 117 0
-330 -333 -407 -89 -69 183 0
-330 -334 -407 -89 -118 183 0
-330 -335 -407 -89 -169 183 0
-331 -333 -407 -91 -69 183 0
-331 -334 -407 -91 -118 183 0
-331 -335 -407 -91 -169 183 0
-332 -333 -407 -148 -69 183 0
-332 -334 -407 -148 -118 183 0
-332 -335 -407 -148 -169 183 0
-333 -336 -408 -69 -141 83 0
-333 -337 -408 -69 -156 83 0
-333 -338 -408 -69 -187 83 0
-334 -336 -408 -118 -141 83 0
-334 -337 -408 -118 -156 83 0
-334 -338 -408 -118 -187 83 0
-335 -336 -408 -169 -141 83 0
-335 -337 -408 -169 -156 83 0
-335 -338 -408 -169 -187 83 0
-333 -336 -409 -69 -141 128 0
-333 -337 -409 -69 -156 128 0
-333 -338 -409 -69 -187 128 0
-334 -336 -409 -118 -141 128 0
-334 -337 -409 -118 -156 128 0
-334 -338 -409 -118 -187 128 0
-335 -336 -409 -169 -141 128 0
-335 -337 -409 -169 -156 128 0
-335 -338 -409 -169 -187 128 0
-333 -336 -410 -69 -141 180 0
-333 -337 -410 -69 -156 180 0
-333 -338 -410 -69 -187 180 0
-334 -336 -410 -118 -141 180 0
-334 -337 -410 -118 -156 180 0
-334 -338 -410 -118 -187 180 0
-335 -336 -410 -169 -141 180 0
-335 -337 -410 -169 -156 180 0
-335 -338 -410 -169 -187 180 0
-336 -339 -411 -141 -2 7 0
-336 -340 -411 -141 -99 7 0
-336 -341 -411 -141 -190 7 0
-337 -339 -411 -156 -2 7 0
-337 -340 -411 -156 -99 7 0
-337 -341 -411 -156 -190 7 0
-338 -339 -411 -187 -2 7 0
-338 -340 -411 -187 -99 7 0
-338 -341 -411 -187 -190 7 0
-336 -339 -412 -141 -2 30 0
-336 -340 -412 -141 -99 30 0
-336 -341 -412 -141 -190 30 0
-337 -339 -412 -156 -2 30 0
-337 -340 -412 -156 -99 30 0
-337 -341 -412 -156 -190 30 0
-338 -339 -412 -187 -2 30 0
-338 -340 -412 -187 -99 30 0
-338 -341 -412 -187 -190 30 0
-336 -339 -413 -141 -2 122 0
-336 -340 -413 -141 -99 122 0
-336 -341 -413 -141 -190 122 0
-337 -339 -413 -156 -2 122 0
-337 -340 -413 -156 -99 122 0
-337 -341 -413 -156 -190 122 0
-338 -339 -413 -187 -2 122 0
-338 -340 -413 -187 -99 122 0
-338 -341 -413 -187 -190 122 0
-339 -342 -414 -2 -34 80 0
-339 -343 -414 -2 -132 80 0
-339 -344 -414 -2 -133 80 0
-340 -342 -414 -99 -34 80 0
-340 -343 -414 -99 -132 80 0
-340 -344 -414 -99 -133 80 0
-341 -342 -414 -190 -34 80 0
-341 -343 -414 -190 -132 80 0
-341 -344 -414 -190 -133 80 0
-339 -342 -415 -2 -34 88 0
-339 -343 -415 -2 -132 88 0
-339 -344 -415 -2 -133 88 0
-340 -342 -415 -99 -34 88 0
-340 -343 -415 -99 -132 88 0
-340 -344 -415 -99 -133 88 0
-341 -342 -415 -190 -34 88 0
-341 -343 -415 -190 -132 88 0
-341 -344 -415 -190 -133 88 0
-339 -342 -416 -2 -34 99 0
-339 -343 -416 -2 -132 99 0
-339 -344 -416 -2 -133 99 0
-341 -342 -416 -190 -34 99 0
-341 -343 -416 -190 -132 99 0
-341 -344 -416 -190 -133 99 0
-342 -345 -417 -34 -53 49 0
-342 -346 -417 -34 -144 49 0
-342 -347 -417 -34 -200 49 0
-343 -345 -417 -132 -53 49 0
-343 -346 -417 -132 -144 49 0
-343 -347 -417 -132 -200 49 0
-344 -345 -417 -133 -53 49 0
-344 -346 -417 -133 -144 49 0
-344 -347 -417 -133 -200 49 0
-342 -345 -418 -34 -53 67 0
-342 -346 -418 -34 -144 67 0
-342 -347 -418 -34 -200 67 0
-343 -345 -418 -132 -53 67 0
-343 -346 -418 -132 -144 67 0
-343 -347 -418 -132 -200 67 0
-344 -345 -418 -133 -53 67 0
-344 -346 -418 -133 -144 67 0
-344 -347 -418 -133 -200 67 0
-342 -345 -419 -34 -53 108 0
-342 -346 -419 -34 -144 108 0
-342 -347 -419 -34 -200 108 0
-343 -345 -419 -132 -53 108 0
-343 -346 -419 -132 -144 108 0
-343 -347 -419 -132 -200 108 0
-344 -345 -419 -133 -53 108 0
-344 -346 -419 -133 -144 108 0
-344 -347 -419 -133 -200 108 0
-345 -348 -420 -53 -15 28 0
-345 -349 -420 -53 -110 28 0
-345 -350 -420 -53 -124 28 0
-346 -348 -420 -144 -15 28 0
-346 -349 -420 -144 -110 28 0
-346 -350 -420 -144 -124 28 0
-347 -348 -420 -200 -15 28 0
-347 -349 -420 -200 -110 28 0
-347 -350 -420 -200 -124 28 0
-345 -348 -421 -53 -15 65 0
-345 -349 -421 -53 -110 65 0
-345 -350 -421 -53 -124 65 0
-346 -348 -421 -144 -15 65 0
-346 -349 -421 -144 -110 65 0
-346 -350 -421 -144 -124 65 0
-347 -348 -421 -200 -15 65 0
-347 -349 -421 -200 -110 65 0
-347 -350 -421 -200 -124 65 0
-345 -348 -422 -53 -15 187 0
-345 -349 -422 -53 -110 187 0
-345 -350 -422 -53 -124 187 0
-346 -348 -422 -144 -15 187 0
-346 -349 -422 -144 -110 187 0
-346 -350 -422 -144 -124 187 0
-347 -348 -422 -200 -15 187 0
-347 -349 -422 -200 -110 187 0
-347 -350 -422 -200 -124 187 0
-348 -351 -423 -15 -94 54 0
-348 -352 -423 -15 -142 54 0
-348 -353 -423 -15 -146 54 0
-349 -351 -423 -110 -94 54 0
-349 -352 -423 -110 -142 54 0
-349 -353 -423 -110 -146 54 0
-350 -351 -423 -124 -94 54 0
-350 -352 -423 -124 -142 54 0
-350 -353 -423 -124 -146 54 0
-348 -351 -424 -15 -94 131 0
-348 -352 -424 -15 -142 131 0
-348 -353 -424 -15 -146 131 0
-349 -351 -424 -110 -94 131 0
-349 -352 -424 -110 -142 131 0
-349 -353 -424 -110 -146 131 0
-350 -351 -424 -124 -94 131 0
-350 -352 -424 -124 -142 131 0
-350 -353 -424 -124 -146 131 0
-348 -351 -425 -15 -94 156 0
-348 -352 -425 -15 -142 156 0
-348 -353 -425 -15 -146 156 0
-349 -351 -425 -110 -94 156 0
-349 -352 -425 -110 -142 156 0
-349 -353 -425 -110 -146 156 0
-350 -351 -425 -124 -94 156 0
-350 -352 -425 -124 -142 156 0
-350 -353 -425 -124 -146 156 0
-354 -357 -426 -52 -92 6 0
-354 -358 -426 -52 -107 6 0
-354 -359 -426 -52 -125 6 0
-355 -357 -426 -106 -92 6 0
-355 -358 -426 -106 -107 6 0
-355 -359 -426 -106 -125 6 0
-356 -357 -426 -130 -92 6 0
-356 -358 -426 -130 -107 6 0
-356 -359 -426 -130 -125 6 0
-354 -357 -427 -52 -92 58 0
-354 -358 -427 -52 -107 58 0
-354 -359 -427 -52 -125 58 0
-355 -357 -427 -106 -92 58 0
-355 -358 -427 -106 -107 58 0
-355 -359 -427 -106 -125 58 0
-356 -357 -427 -130 -92 58 0
-356 -358 -427 -130 -107 58 0
-356 -359 -427 -130 -125 58 0
-354 -357 -428 -52 -92 111 0
-354 -358 -428 -52 -107 111 0
-354 -359 -428 -52 -125 111 0
-355 -357 -428 -106 -92 111 0
-355 -358 -428 -106 -107 111 0
-355 -359 -428 -106 -125 111 0
-356 -357 -428 -130 -92 111 0
-356 -358 -428 -130 -107 111 0
-356 -359 -428 -130 -125 111 0
-357 -360 -429 -92 -1 5 0
-357 -361 -429 -92 -89 5 0
-357 -362 -429 -92 -138 5 0
-358 -360 -429 -107 -1 5 0
-358 -361 -429 -107 -89 5 0
-358 -362 -429 -107 -138 5 0
-359 -360 -429 -125 -1 5 0
-359 -361 -429 -125 -89 5 0
-359 -362 -429 -125 -138 5 0
-357 -360 -430 -92 -1 38 0
-357 -361 -430 -92 -89 38 0
-357 -362 -430 -92 -138 38 0
-358 -360 -430 -107 -1 38 0
-358 -361 -430 -107 -89 38 0
-358 -362 -430 -107 -138 38 0
-359 -360 -430 -125 -1 38 0
-359 -361 -430 -125 -89 38 0
-359 -362 -430 -125 -138 38 0
-357 -360 -431 -92 -1 102 0
-357 -361 -431 -92 -89 102 0
-357 -362 -431 -92 -138 102 0
-358 -360 -431 -107 -1 102 0
-358 -361 -431 -107 -89 102 0
-358 -362 -431 -107 -138 102 0
-359 -360 -431 -125 -1 102 0
-359 -361 -431 -125 -89 102 0
-359 -362 -431 -125 -138 102 0
-360 -363 -432 -1 -139 10 0
-360 -364 -432 -1 -157 10 0
-360 -365 -432 -1 -160 10 0
-361 -363 -432 -89 -139 10 0
-361 -364 -432 -89 -157 10 0
-361 -365 -432 -89 -160 10 0
-362 -363 -432 -138 -139 10 0
-362 -364 -432 -138 -157 10 0
-362 -365 -432 -138 -160 10 0
-360 -363 -433 -1 -139 42 0
-360 -364 -433 -1 -157 42 0
-360 -365 -433 -1 -160 42 0
-361 -363 -433 -89 -139 42 0
-361 -364 -433 -89 -157 42 0
-361 -365 -433 -89 -160 42 0
-362 -363 -433 -138 -139 42 0
-362 -364 -433 -138 -157 42 0
-362 -365 -433 -138 -160 42 0
-360 -363 -434 -1 -139 185 0
-360 -364 -434 -1 -157 185 0
-360 -365 -434 -1 -160 185 0
-361 -363 -434 -89 -139 185 0
-361 -364 -434 -89 -157 185 0
-361 -365 -434 -89 -160 185 0
-362 -363 -434 -138 -139 185 0
-362 -364 -434 -138 -157 185 0
-362 -365 -434 -138 -160 185 0
-363 -366 -435 -139 -85 115 0
-363 -367 -435 -139 -118 115 0
-363 -368 -435 -139 -154 115 0
-364 -366 -435 -157 -85 115 0
-364 -367 -435 -157 -118 115 0
-364 -368 -435 -157 -154 115 0
-365 -366 -435 -160 -85 115 0
-365 -367 -435 -160 -118 115 0
-365 -368 -435 -160 -154 115 0
-363 -366 -436 -139 -85 130 0
-363 -367 -436 -139 -118 130 0
-363 -368 -436 -139 -154 130 0
-364 -366 -436 -157 -85 130 0
-364 -367 -436 -157 -118 130 0
-364 -368 -436 -157 -154 130 0
-365 -366 -436 -160 -85 130 0
-365 -367 -436 -160 -118 130 0
-365 -368 -436 -160 -154 130 0
-363 -366 -437 -139 -85 181 0
-363 -367 -437 -139 -118 181 0
-363 -368 -437 -139 -154 181 0
-364 -366 -437 -157 -85 181 0
-364 -367 -437 -157 -118 181 0
-364 -368 -437 -157 -154 181 0
-365 -366 -437 -160 -85 181 0
-365 -367 -437 -160 -118 181 0
-365 -368 -437 -160 -154 181 0
-366 -369 -438 -85 -8 110 0
-366 -370 -438 -85 -59 110 0
-366 -371 -438 -85 -163 110 0
-367 -369 -438 -118 -8 110 0
-367 -370 -438 -118 -59 110 0
-367 -371 -438 -118 -163 110 0
-368 -369 -438 -154 -8 110 0
-368 -370 -438 -154 -59 110 0
-368 -371 -438 -154 -163 110 0
-366 -369 -439 -85 -8 140 0
-366 -370 -439 -85 -59 140 0
-366 -371 -439 -85 -163 140 0
-367 -369 -439 -118 -8 140 0
-367 -370 -439 -118 -59 140 0
-367 -371 -439 -118 -163 140 0
-368 -369 -439 -154 -8 140 0
-368 -370 -439 -154 -59 140 0
-368 -371 -439 -154 -163 140 0
-366 -369 -440 -85 -8 174 0
-366 -370 -440 -85 -59 174 0
-366 -371 -440 -85 -163 174 0
-367 -369 -440 -118 -8 174 0
-367 -370 -440 -118 -59 174 0
-367 -371 -440 -118 -163 174 0
-368 -369 -440 -154 -8 174 0
-368 -370 -440 -154 -59 174 0
-368 -371 -440 -154 -163 174 0
-369 -372 -441 -8 -46 57 0
-369 -373 -441 -8 -141 57 0
-369 -374 -441 -8 -150 57 0
-370 -372 -441 -59 -46 57 0
-370 -373 -441 -59 -141 57 0
-370 -374 -441 -59 -150 57 0
-371 -372 -441 -163 -46 57 0
-371 -373 -441 -163 -141 57 0
-371 -374 -441 -163 -150 57 0
-369 -372 -442 -8 -46 162 0
-369 -373 -442 -8 -141 162 0
-369 -374 -442 -8 -150 162 0
-370 -372 -442 -59 -46 162 0
-370 -373 -442 -59 -141 162 0
-370 -374 -442 -59 -150 162 0
-371 -372 -442 -163 -46 162 0
-371 -373 -442 -163 -141 162 0
-371 -374 -442 -163 -150 162 0
-369 -372 -443 -8 -46 178 0
-369 -373 -443 -8 -141 178 0
-369 -374 -443 -8 -150 178 0
-370 -372 -443 -59 -46 178 0
-370 -373 -443 -59 -141 178 0
-370 -374 -443 -59 -150 178 0
-371 -372 -443 -163 -46 178 0
-371 -373 -443 -163 -141 178 0
-371 -374 -443 -163 -150 178 0
-372 -375 -444 -46 -24 58 0
-372 -376 -444 -46 -47 58 0
-372 -377 -444 -46 -142 58 0
-373 -375 -444 -141 -24 58 0
-373 -376 -444 -141 -47 58 0
-373 -377 -444 -141 -142 58 0
-374 -375 -444 -150 -24 58 0
-374 -376 -444 -150 -47 58 0
-374 -377 -444 -150 -142 58 0
-372 -375 -445 -46 -24 116 0
-372 -376 -445 -46 -47 116 0
-372 -377 -445 -46 -142 116 0
-373 -375 -445 -141 -24 116 0
-373 -376 -445 -141 -47 116 0
-373 -377 -445 -141 -142 116 0
-374 -375 -445 -150 -24 116 0
-374 -376 -445 -150 -47 116 0
-374 -377 -445 -150 -142 116 0
-372 -375 -446 -46 -24 133 0
-372 -376 -446 -46 -47 133 0
-372 -377 -446 -46 -142 133 0
-373 -375 -446 -141 -24 133 0
-373 -376 -446 -141 -47 133 0
-373 -377 -446 -141 -142 133 0
-374 -375 -446 -150 -24 133 0
-374 -376 -446 -150 -47 133 0
-374 -377 -446 -150 -142 133 0
-375 -378 -447 -24 -9 8 0
-375 -379 -447 -24 -66 8 0
-375 -380 -447 -24 -173 8 0
-376 -378 -447 -47 -9 8 0
-376 -379 -447 -47 -66 8 0
-376 -380 -447 -47 -173 8 0
-377 -378 -447 -142 -9 8 0
-377 -379 -447 -142 -66 8 0
-377 -380 -447 -142 -173 8 0
-375 -378 -448 -24 -9 135 0
-375 -379 -448 -24 -66 135 0
-375 -380 -448 -24 -173 135 0
-376 -378 -448 -47 -9 135 0
-376 -379 -448 -47 -66 135 0
-376 -380 -448 -47 -173 135 0
-377 -378 -448 -142 -9 135 0
-377 -379 -448 -142 -66 135 0
-377 -380 -448 -142 -173 135 0
-375 -378 -449 -24 -9 167 0
-375 -379 -449 -24 -66 167 0
-375 -380 -449 -24 -173 167 0
-376 -378 -449 -47 -9 167 0
-376 -379 -449 -47 -66 167 0
-376 -380 -449 -47 -173 167 0
-377 -378 -449 -142 -9 167 0
-377 -379 -449 -142 -66 167 0
-377 -380 -449 -142 -173 167 0
-378 -381 -450 -9 -5 102 0
-378 -382 -450 -9 -19 102 0
-378 -383 -450 -9 -22 102 0
-379 -381 -450 -66 -5 102 0
-379 -382 -450 -66 -19 102 0
-379 -383 -450 -66 -22 102 0
-380 -381 -450 -173 -5 102 0
-380 -382 -450 -173 -19 102 0
-380 -383 -450 -173 -22 102 0
-378 -381 -451 -9 -5 148 0
-378 -382 -451 -9 -19 148 0
-378 -383 -451 -9 -22 148 0
-379 -381 -451 -66 -5 148 0
-379 -382 -451 -66 -19 148 0
-379 -383 -451 -66 -22 148 0
-380 -381 -451 -173 -5 148 0
-380 -382 -451 -173 -19 148 0
-380 -383 -451 -173 -22 148 0
-378 -381 -452 -9 -5 173 0
-378 -382 -452 -9 -19 173 0
-378 -383 -452 -9 -22 173 0
-379 -381 -452 -66 -5 173 0
-379 -382 -452 -66 -19 173 0
-379 -383 -452 -66 -22 173 0
-381 -384 -453 -5 -4 83 0
-381 -385 -453 -5 -116 83 0
-381 -386 -453 -5 -194 83 0
-382 -384 -453 -19 -4 83 0
-382 -385 -453 -19 -116 83 0
-382 -386 -453 -19 -194 83 0
-383 -384 -453 -22 -4 83 0
-383 -385 -453 -22 -116 83 0
-383 -386 -453 -22 -194 83 0
-381 -384 -454 -5 -4 162 0
-381 -385 -454 -5 -116 162 0
-381 -386 -454 -5 -194 162 0
-382 -384 -454 -19 -4 162 0
-382 -385 -454 -19 -116 162 0
-382 -386 -454 -19 -194 162 0
-383 -384 -454 -22 -4 162 0
-383 -385 -454 -22 -116 162 0
-383 -386 -454 -22 -194 162 0
-381 -384 -455 -5 -4 169 0
-381 -385 -455 -5 -116 169 0
-381 -386 -455 -5 -194 169 0
-382 -384 -455 -19 -4 169 0
-382 -385 -455 -19 -116 169 0
-382 -386 -455 -19 -194 169 0
-383 -384 -455 -22 -4 169 0
-383 -385 -455 -22 -116 169 0
-383 -386 -455 -22 -194 169 0
-384 -387 -456 -4 -64 16 0
-384 -388 -456 -4 -72 16 0
-384 -389 -456 -4 -194 16 0
-385 -387 -456 -116 -64 16 0
-385 -388 -456 -116 -72 16 0
-385 -389 -456 -116 -194 16 0
-386 -387 -456 -194 -64 16 0
-386 -388 -456 -194 -72 16 0
-386 -389 -456 -194 16 0
-384 -387 -457 -4 -64 110 0
-384 -388 -457 -4 -72 110 0
-384 -389 -457 -4 -194 110 0
-385 -387 -457 -116 -64 110 0
-385 -388 -457 -116 -72 110 0
-385 -389 -457 -116 -194 110 0
-386 -387 -457 -194 -64 110 0
-386 -388 -457 -194 -72 110 0
-386 -389 -457 -194 110 0
-384 -387 -458 -4 -64 189 0
-384 -388 -458 -4 -72 189 0
-384 -389 -458 -4 -194 189 0
-385 -387 -458 -116 -64 189 0
-385 -388 -458 -116 -72 189 0
-385 -389 -458 -116 -194 189 0
-386 -387 -458 -194 -64 189 0
-386 -388 -458 -194 -72 189 0
-386 -389 -458 -194 189 0
-387 -390 -459 -64 -29 33 0
-387 -391 -459 -64 -69 33 0
-387 -392 -459 -64 -160 33 0
-388 -390 -459 -72 -29 33 0
-388 -391 -459 -72 -69 33 0
-388 -392 -459 -72 -160 33 0
-389 -390 -459 -194 -29 33 0
-389 -391 -459 -194 -69 33 0
-389 -392 -459 -194 -160 33 0
-387 -390 -460 -64 -29 55 0
-387 -391 -460 -64 -69 55 0
-387 -392 -460 -64 -160 55 0
-388 -390 -460 -72 -29 55 0
-388 -391 -460 -72 -69 55 0
-388 -392 -460 -72 -160 55 0
-389 -390 -460 -194 -29 55 0
-389 -391 -460 -194 -69 55 0
-389 -392 -460 -194 -160 55 0
-387 -390 -461 -64 -29 77 0
-387 -391 -461 -64 -69 77 0
-387 -392 -461 -64 -160 77 0
-388 -390 -461 -72 -29 77 0
-388 -391 -461 -72 -69 77 0
-388 -392 -461 -72 -160 77 0
-389 -390 -461 -194 -29 77 0
-389 -391 -461 -194 -69 77 0
-389 -392 -461 -194 -160 77 0
-390 -393 -462 -29 -48 13 0
-390 -394 -462 -29 -75 13 0
-390 -395 -462 -29 -89 13 0
-391 -393 -462 -69 -48 13 0
-391 -394 -462 -69 -75 13 0
-391 -395 -462 -69 -89 13 0
-392 -393 -462 -160 -48 13 0
-392 -394 -462 -160 -75 13 0
-392 -395 -462 -160 -89 13 0
-390 -393 -463 -29 -48 19 0
-390 -394 -463 -29 -75 19 0
-390 -395 -463 -29 -89 19 0
-391 -393 -463 -69 -48 19 0
-391 -394 -463 -69 -75 19 0
-391 -395 -463 -69 -89 19 0
-392 -393 -463 -160 -48 19 0
-392 -394 -463 -160 -75 19 0
-392 -395 -463 -160 -89 19 0
-390 -393 -464 -29 -48 79 0
-390 -394 -464 -29 -75 79 0
-390 -395 -464 -29 -89 79 0
-391 -393 -464 -69 -48 79 0
-391 -394 -464 -69 -75 79 0
-391 -395 -464 -69 -89 79 0
-392 -393 -464 -160 -48 79 0
-392 -394 -464 -160 -75 79 0
-392 -395 -464 -160 -89 79 0
-393 -396 -465 -48 -18 20 0
-393 -397 -465 -48 -41 20 0
-393 -398 -465 -48 -43 20 0
-394 -396 -465 -75 -18 20 0
-394 -397 -465 -75 -41 20 0
-394 -398 -465 -75 -43 20 0
-395 -396 -465 -89 -18 20 0
-395 -397 -465 -89 -41 20 0
-395 -398 -465 -89 -43 20 0
-393 -396 -466 -48 -18 77 0
-393 -397 -466 -48 -41 77 0
-393 -398 -466 -48 -43 77 0
-394 -396 -466 -75 -18 77 0
-394 -397 -466 -75 -41 77 0
-394 -398 -466 -75 -43 77 0
-395 -396 -466 -89 -18 77 0
-395 -397 -466 -89 -41 77 0
-395 -398 -466 -89 -43 77 0
-393 -396 -467 -48 -18 80 0
-393 -397 -467 -48 -41 80 0
-393 -398 -467 -48 -43 80 0
-394 -396 -467 -75 -18 80 0
-394 -397 -467 -75 -41 80 0
-394 -398 -467 -75 -43 80 0
-395 -396 -467 -89 -18 80 0
-395 -397 -467 -89 -41 80 0
-395 -398 -467 -89 -43 80 0
-396 -399 -468 -18 -44 41 0
-396 -400 -468 -18 -66 41 0
-396 -401 -468 -18 -136 41 0
-398 -399 -468 -43 -44 41 0
-398 -400 -468 -43 -66 41 0
-398 -401 -468 -43 -136 41 0
-396 -399 -469 -18 -44 107 0
-396 -400 -469 -18 -66 107 0
-396 -401 -469 -18 -136 107 0
-397 -399 -469 -41 -44 107 0
-397 -400 -469 -41 -66 107 0
-397 -401 -469 -41 -136 107 0
-398 -399 -469 -43 -44 107 0
-398 -400 -469 -43 -66 107 0
-398 -401 -469 -43 -136 107 0
-396 -399 -470 -18 -44 191 0
-396 -400 -470 -18 -66 191 0
-396 -401 -470 -18 -136 191 0
-397 -399 -470 -41 -44 191 0
-397 -400 -470 -41 -66 191 0
-397 -401 -470 -41 -136 191 0
-398 -399 -470 -43 -44 191 0
-398 -400 -470 -43 -66 191 0
-398 -401 -470 -43 -136 191 0
-399 -402 -471 -44 -70 34 0
-399 -403 -471 -44 -166 34 0
-399 -404 -471 -44 -169 34 0
-400 -402 -471 -66 -70 34 0
-400 -403 -471 -66 -166 34 0
-400 -404 -471 -66 -169 34 0
-401 -402 -471 -136 -70 34 0
-401 -403 -471 -136 -166 34 0
-401 -404 -471 -136 -169 34 0
-399 -402 -472 -44 -70 65 0
-399 -403 -472 -44 -166 65 0
-399 -404 -472 -44 -169 65 0
-400 -402 -472 -66 -70 65 0
-400 -403 -472 -66 -166 65 0
-400 -404 -472 -66 -169 65 0
-401 -402 -472 -136 -70 65 0
-401 -403 -472 -136 -166 65 0
-401 -404 -472 -136 -169 65 0
-399 -402 -473 -44 -70 145 0
-399 -403 -473 -44 -166 145 0
-399 -404 -473 -44 -169 145 0
-400 -402 -473 -66 -70 145 0
-400 -403 -473 -66 -166 145 0
-400 -404 -473 -66 -169 145 0
-401 -402 -473 -136 -70 145 0
-401 -403 -473 -136 -166 145 0
-401 -404 -473 -136 -169 145 0
-402 -405 -474 -70 -76 3 0
-402 -406 -474 -70 -117 3 0
-402 -407 -474 -70 -183 3 0
-403 -405 -474 -166 -76 3 0
-403 -406 -474 -166 -117 3 0
-403 -407 -474 -166 -183 3 0
-404 -405 -474 -169 -76 3 0
-404 -406 -474 -169 -117 3 0
-404 -407 -474 -169 -183 3 0
-402 -405 -475 -70 -76 10 0
-402 -406 -475 -70 -117 10 0
-402 -407 -475 -70 -183 10 0
-403 -405 -475 -166 -76 10 0
-403 -406 -475 -166 -117 10 0
-403 -407 -475 -166 -183 10 0
-404 -405 -475 -169 -76 10 0
-404 -406 -475 -169 -117 10 0
-404 -407 -475 -169 -183 10 0
-402 -405 -476 -70 -76 144 0
-402 -406 -476 -70 -117 144 0
-402 -407 -476 -70 -183 144 0
-403 -405 -476 -166 -76 144 0
-403 -406 -476 -166 -117 144 0
-403 -407 -476 -166 -183 144 0
-404 -405 -476 -169 -76 144 0
-404 -406 -476 -169 -117 144 0
-404 -407 -476 -169 -183 144 0
-405 -408 -477 -76 -83 56 0
-405 -409 -477 -76 -128 56 0
-405 -410 -477 -76 -180 56 0
-406 -408 -477 -117 -83 56 0
-406 -409 -477 -117 -128 56 0
-406 -410 -477 -117 -180 56 0
-407 -408 -477 -183 -83 56 0
-407 -409 -477 -183 -128 56 0
-407 -410 -477 -183 -180 56 0
-405 -408 -478 -76 -83 146 0
-405 -409 -478 -76 -128 146 0
-405 -410 -478 -76 -180 146 0
-406 -408 -478 -117 -83 146 0
-406 -409 -478 -117 -128 146 0
-406 -410 -478 -117 -180 146 0
-407 -408 -478 -183 -83 146 0
-407 -409 -478 -183 -128 146 0
-407 -410 -478 -183 -180 146 0
-405 -408 -479 -76 -83 152 0
-405 -409 -479 -76 -128 152 0
-405 -410 -479 -76 -180 152 0
-406 -408 -479 -117 -83 152 0
-406 -409 -479 -117 -128 152 0
-406 -410 -479 -117 -180 152 0
-407 -408 -479 -183 -83 152 0
-407 -409 -479 -183 -128 152 0
-407 -410 -479 -183 -180 152 0
-408 -411 -480 -83 -7 44 0
-408 -412 -480 -83 -30 44 0
-408 -413 -480 -83 -122 44 0
-409 -411 -480 -128 -7 44 0
-409 -412 -480 -128 -30 44 0
-409 -413 -480 -128 -122 44 0
-410 -411 -480 -180 -7 44 0
-410 -412 -480 -180 -30 44 0
-410 -413 -480 -180 -122 44 0
-408 -411 -481 -83 -7 118 0
-408 -412 -481 -83 -30 118 0
-408 -413 -481 -83 -122 118 0
-409 -411 -481 -128 -7 118 0
-409 -412 -481 -128 -30 118 0
-409 -413 -481 -128 -122 118 0
-410 -411 -481 -180 -7 118 0
-410 -412 -481 -180 -30 118 0
-410 -413 -481 -180 -122 118 0
-408 -411 -482 -83 -7 200 0
-408 -412 -482 -83 -30 200 0
-408 -413 -482 -83 -122 200 0
-409 -411 -482 -128 -7 200 0
-409 -412 -482 -128 -30 200 0
-409 -413 -482 -128 -122 200 0
-410 -411 -482 -180 -7 200 0
-410 -412 -482 -180 -30 200 0
-410 -413 -482 -180 -122 200 0
-411 -414 -483 -7 -80 131 0
-411 -415 -483 -7 -88 131 0
-411 -416 -483 -7 -99 131 0
-412 -414 -483 -30 -80 131 0
-412 -415 -483 -30 -88 131 0
-412 -416 -483 -30 -99 131 0
-413 -414 -483 -122 -80 131 0
-413 -415 -483 -122 -88 131 0
-413 -416 -483 -122 -99 131 0
-411 -414 -484 -7 -80 160 0
-411 -415 -484 -7 -88 160 0
-411 -416 -484 -7 -99 160 0
-412 -414 -484 -30 -80 160 0
-412 -415 -484 -30 -88 160 0
-412 -416 -484 -30 -99 160 0
-413 -414 -484 -122 -80 160 0
-413 -415 -484 -122 -88 160 0
-413 -416 -484 -122 -99 160 0
-411 -414 -485 -7 -80 181 0
-411 -415 -485 -7 -88 181 0
-411 -416 -485 -7 -99 181 0
-412 -414 -485 -30 -80 181 0
-412 -415 -485 -30 -88 181 0
-412 -416 -485 -30 -99 181 0
-413 -414 -485 -122 -80 181 0
-413 -415 -485 -122 -88 181 0
-413 -416 -485 -122 -99 181 0
-414 -417 -486 -80 -49 10 0
-414 -418 -486 -80 -67 10 0
-414 -419 -486 -80 -108 10 0
-415 -417 -486 -88 -49 10 0
-415 -418 -486 -88 -67 10 0
-415 -419 -486 -88 -108 10 0
-416 -417 -486 -99 -49 10 0
-416 -418 -486 -99 -67 10 0
-416 -419 -486 -99 -108 10 0
-414 -417 -487 -80 -49 52 0
-414 -418 -487 -80 -67 52 0
-414 -419 -487 -80 -108 52 0
-415 -417 -487 -88 -49 52 0
-415 -418 -487 -88 -67 52 0
-415 -419 -487 -88 -108 52 0
-416 -417 -487 -99 -49 52 0
-416 -418 -487 -99 -67 52 0
-416 -419 -487 -99 -108 52 0
-414 -417 -488 -80 -49 97 0
-414 -418 -488 -80 -67 97 0
-414 -419 -488 -80 -108 97 0
-415 -417 -488 -88 -49 97 0
-415 -418 -488 -88 -67 97 0
-415 -419 -488 -88 -108 97 0
-416 -417 -488 -99 -49 97 0
-416 -418 -488 -99 -67 97 0
-416 -419 -488 -99 -108 97 0
-417 -420 -489 -49 -28 26 0
-417 -421 -489 -49 -65 26 0
-417 -422 -489 -49 -187 26 0
-418 -420 -489 -67 -28 26 0
-418 -421 -489 -67 -65 26 0
-418 -422 -489 -67 -187 26 0
-419 -420 -489 -108 -28 26 0
-419 -421 -489 -108 -65 26 0
-419 -422 -489 -108 -187 26 0
-417 -420 -490 -49 -28 53 0
-417 -421 -490 -49 -65 53 0
-417 -422 -490 -49 -187 53 0
-418 -420 -490 -67 -28 53 0
-418 -421 -490 -67 -65 53 0
-418 -422 -490 -67 -187 53 0
-419 -420 -490 -108 -28 53 0
-419 -421 -490 -108 -65 53 0
-419 -422 -490 -108 -187 53 0
-417 -420 -491 -49 -28 89 0
-417 -421 -491 -49 -65 89 0
-417 -422 -491 -49 -187 89 0
-418 -420 -491 -67 -28 89 0
-418 -421 -491 -67 -65 89 0
-418 -422 -491 -67 -187 89 0
-419 -420 -491 -108 -28 89 0
-419 -421 -491 -108 -65 89 0
-419 -422 -491 -108 -187 89 0
-420 -423 -492 -28 -54 111 0
-420 -424 -492 -28 -131 111 0
-420 -425 -492 -28 -156 111 0
-421 -423 -492 -65 -54 111 0
-421 -424 -492 -65 -131 111 0
-421 -425 -492 -65 -156 111 0
-422 -423 -492 -187 -54 111 0
-422 -424 -492 -187 -131 111 0
-422 -425 -492 -187 -156 111 0
-420 -423 -493 -28 -54 147 0
-420 -424 -493 -28 -131 147 0
-420 -425 -493 -28 -156 147 0
-421 -423 -493 -65 -54 147 0
-421 -424 -493 -65 -131 147 0
-421 -425 -493 -65 -156 147 0
-422 -423 -493 -187 -54 147 0
-422 -424 -493 -187 -131 147 0
-422 -425 -493 -187 -156 147 0
-420 -423 -494 -28 -54 173 0
-420 -424 -494 -28 -131 173 0
-420 -425 -494 -28 -156 173 0
-421 -423 -494 -65 -54 173 0
-421 -424 -494 -65 -131 173 0
-421 -425 -494 -65 -156 173 0
-422 -423 -494 -187 -54 173 0
-422 -424 -494 -187 -131 173 0
-422 -425 -494 -187 -156 173 0
-426 -429 -495 -6 -5 50 0
-426 -430 -495 -6 -38 50 0
-426 -431 -495 -6 -102 50 0
-427 -429 -495 -58 -5 50 0
-427 -430 -495 -58 -38 50 0
-427 -431 -495 -58 -102 50 0
-428 -429 -495 -111 -5 50 0
-428 -430 -495 -111 -38 50 0
-428 -431 -495 -111 -102 50 0
-426 -429 -496 -6 -5 127 0
-426 -430 -496 -6 -38 127 0
-426 -431 -496 -6 -102 127 0
-427 -429 -496 -58 -5 127 0
-427 -430 -496 -58 -38 127 0
-427 -431 -496 -58 -102 127 0
-428 -429 -496 -111 -5 127 0
-428 -430 -496 -111 -38 127 0
-428 -431 -496 -111 -102 127 0
-426 -429 -497 -6 -5 152 0
-426 -430 -497 -6 -38 152 0
-426 -431 -497 -6 -102 152 0
-427 -429 -497 -58 -5 152 0
-427 -430 -497 -58 -38 152 0
-427 -431 -497 -58 -102 152 0
-428 -429 -497 -111 -5 152 0
-428 -430 -497 -111 -38 152 0
-428 -431 -497 -111 -102 152 0
-429 -432 -498 -5 -10 27 0
-429 -433 -498 -5 -42 27 0
-429 -434 -498 -5 -185 27 0
-430 -432 -498 -38 -10 27 0
-430 -433 -498 -38 -42 27 0
-430 -434 -498 -38 -185 27 0
-431 -432 -498 -102 -10 27 0
-431 -433 -498 -102 -42 27 0
-431 -434 -498 -102 -185 27 0
-429 -432 -499 -5 -10 100 0
-429 -433 -499 -5 -42 100 0
-429 -434 -499 -5 -185 100 0
-430 -432 -499 -38 -10 100 0
-430 -433 -499 -38 -42 100 0
-430 -434 -499 -38 -185 100 0
-431 -432 -499 -102 -10 100 0
-431 -433 -499 -102 -42 100 0
-431 -434 -499 -102 -185 100 0
-429 -432 -500 -5 -10 171 0
-429 -433 -500 -5 -42 171 0
-429 -434 -500 -5 -185 171 0
-430 -432 -500 -38 -10 171 0
-430 -433 -500 -38 -42 171 0
-430 -434 -500 -38 -185 171 0
-431 -432 -500 -102 -10 171 0
-431 -433 -500 -102 -42 171 0
-431 -434 -500 -102 -185 171 0
-432 -435 -501 -10 -115 76 0
-432 -436 -501 -10 -130 76 0
-432 -437 -501 -10 -181 76 0
-433 -435 -501 -42 -115 76 0
-433 -436 -501 -42 -130 76 0
-433 -437 -501 -42 -181 76 0
-434 -435 -501 -185 -115 76 0
-434 -436 -501 -185 -130 76 0
-434 -437 -501 -185 -181 76 0
-432 -435 -502 -10 -115 128 0
-432 -436 -502 -10 -130 128 0
-432 -437 -502 -10 -181 128 0
-433 -435 -502 -42 -115 128 0
-433 -436 -502 -42 -130 128 0
-433 -437 -502 -42 -181 128 0
-434 -435 -502 -185 -115 128 0
-434 -436 -502 -185 -130 128 0
-434 -437 -502 -185 -181 128 0
-432 -435 -503 -10 -115 130 0
-432 -437 -503 -10 -181 130 0
-433 -435 -503 -42 -115 130 0
-433 -437 -503 -42 -181 130 0
-434 -435 -503 -185 -115 130 0
-434 -437 -503 -185 -181 130 0
-435 -438 -504 -115 -110 5 0
-435 -439 -504 -115 -140 5 0
-435 -440 -504 -115 -174 5 0
-436 -438 -504 -130 -110 5 0
-436 -439 -504 -130 -140 5 0
-436 -440 -504 -130 -174 5 0
-437 -438 -504 -181 -110 5 0
-437 -439 -504 -181 -140 5 0
-437 -440 -504 -181 -174 5 0
-435 -438 -505 -115 -110 84 0
-435 -439 -505 -115 -140 84 0
-435 -440 -505 -115 -174 84 0
-436 -438 -505 -130 -110 84 0
-436 -439 -505 -130 -140 84 0
-436 -440 -505 -130 -174 84 0
-437 -438 -505 -181 -110 84 0
-437 -439 -505 -181 -140 84 0
-437 -440 -505 -181 -174 84 0
-435 -438 -506 -115 -110 157 0
-435 -439 -506 -115 -140 157 0
-435 -440 -506 -115 -174 157 0
-436 -438 -506 -130 -110 157 0
-436 -439 -506 -130 -140 157 0
-436 -440 -506 -130 -174 157 0
-437 -438 -506 -181 -110 157 0
-437 -439 -506 -181 -140 157 0
-437 -440 -506 -181 -174 157 0
-438 -441 -507 -110 -57 5 0
-438 -442 -507 -110 -162 5 0
-438 -443 -507 -110 -178 5 0
-439 -441 -507 -140 -57 5 0
-439 -442 -507 -140 -162 5 0
-439 -443 -507 -140 -178 5 0
-440 -441 -507 -174 -57 5 0
-440 -442 -507 -174 -162 5 0
-440 -443 -507 -174 -178 5 0
-438 -441 -508 -110 -57 73 0
-438 -442 -508 -110 -162 73 0
-438 -443 -508 -110 -178 73 0
-439 -441 -508 -140 -57 73 0
-439 -442 -508 -140 -162 73 0
-439 -443 -508 -140 -178 73 0
-440 -441 -508 -174 -57 73 0
-440 -442 -508 -174 -162 73 0
-440 -443 -508 -174 -178 73 0
-438 -441 -509 -110 -57 103 0
-438 -442 -509 -110 -162 103 0
-438 -443 -509 -110 -178 103 0
-439 -441 -509 -140 -57 103 0
-439 -442 -509 -140 -162 103 0
-439 -443 -509 -140 -178 103 0
-440 -441 -509 -174 -57 103 0
-440 -442 -509 -174 -162 103 0
-440 -443 -509 -174 -178 103 0
-441 -444 -510 -57 -58 41 0
-441 -445 -510 -57 -116 41 0
-441 -446 -510 -57 -133 41 0
-442 -444 -510 -162 -58 41 0
-442 -445 -510 -162 -116 41 0
-442 -446 -510 -162 -133 41 0
-443 -444 -510 -178 -58 41 0
-443 -445 -510 -178 -116 41 0
-443 -446 -510 -178 -133 41 0
-441 -444 -511 -57 -58 52 0
-441 -445 -511 -57 -116 52 0
-441 -446 -511 -57 -133 52 0
-442 -444 -511 -162 -58 52 0
-442 -445 -511 -162 -116 52 0
-442 -446 -511 -162 -133 52 0
-443 -444 -511 -178 -58 52 0
-443 -445 -511 -178 -116 52 0
-443 -446 -511 -178 -133 52 0
-441 -444 -512 -57 -58 84 0
-441 -445 -512 -57 -116 84 0
-441 -446 -512 -57 -133 84 0
-442 -444 -512 -162 -58 84 0
-442 -445 -512 -162 -116 84 0
-442 -446 -512 -162 -133 84 0
-443 -444 -512 -178 -58 84 0
-443 -445 -512 -178 -116 84 0
-443 -446 -512 -178 -133 84 0
-444 -447 -513 -58 -8 35 0
-444 -448 -513 -58 -135 35 0
-444 -449 -513 -58 -167 35 0
-445 -447 -513 -116 -8 35 0
-445 -448 -513 -116 -135 35 0
-445 -449 -513 -116 -167 35 0
-446 -447 -513 -133 -8 35 0
-446 -448 -513 -133 -135 35 0
-446 -449 -513 -133 -167 35 0
-444 -447 -514 -58 -8 87 0
-444 -448 -514 -58 -135 87 0
-444 -449 -514 -58 -167 87 0
-445 -447 -514 -116 -8 87 0
-445 -448 -514 -116 -135 87 0
-445 -449 -514 -116 -167 87 0
-446 -447 -514 -133 -8 87 0
-446 -448 -514 -133 -135 87 0
-446 -449 -514 -133 -167 87 0
-444 -447 -515 -58 -8 145 0
-444 -448 -515 -58 -135 145 0
-444 -449 -515 -58 -167 145 0
-445 -447 -515 -116 -8 145 0
-445 -448 -515 -116 -135 145 0
-445 -449 -515 -116 -167 145 0
-446 -447 -515 -133 -8 145 0
-446 -448 -515 -133 -135 145 0
-446 -449 -515 -133 -167 145 0
-447 -450 -516 -8 -102 55 0
-447 -451 -516 -8 -148 55 0
-447 -452 -516 -8 -173 55 0
-448 -450 -516 -135 -102 55 0
-448 -451 -516 -135 -148 55 0
-448 -452 -516 -135 -173 55 0
-449 -450 -516 -167 -102 55 0
-449 -451 -516 -167 -148 55 0
-449 -452 -516 -167 -173 55 0
-447 -450 -517 -8 -102 69 0
-447 -451 -517 -8 -148 69 0
-447 -452 -517 -8 -173 69 0
-448 -450 -517 -135 -102 69 0
-448 -451 -517 -135 -148 69 0
-448 -452 -517 -135 -173 69 0
-449 -450 -517 -167 -102 69 0
-449 -451 -517 -167 -148 69 0
-449 -452 -517 -167 -173 69 0
-447 -450 -518 -8 -102 110 0
-447 -451 -518 -8 -148 110 0
-447 -452 -518 -8 -173 110 0
-448 -450 -518 -135 -102 110 0
-448 -451 -518 -135 -148 110 0
-448 -452 -518 -135 -173 110 0
-449 -450 -518 -167 -102 110 0
-449 -451 -518 -167 -148 110 0
-449 -452 -518 -167 -173 110 0
-450 -453 -519 -102 -83 25 0
-450 -454 -519 -102 -162 25 0
-450 -455 -519 -102 -169 25 0
-451 -453 -519 -148 -83 25 0
-451 -454 -519 -148 -162 25 0
-451 -455 -519 -148 -169 25 0
-452 -453 -519 -173 -83 25 0
-452 -454 -519 -173 -162 25 0
-452 -455 -519 -173 -169 25 0
-450 -453 -520 -102 -83 98 0
-450 -454 -520 -102 -162 98 0
-450 -455 -520 -102 -169 98 0
-451 -453 -520 -148 -83 98 0
-451 -454 -520 -148 -162 98 0
-451 -455 -520 -148 -169 98 0
-452 -453 -520 -173 -83 98 0
-452 -454 -520 -173 -162 98 0
-452 -455 -520 -173 -169 98 0
-450 -453 -521 -102 -83 173 0
-450 -454 -521 -102 -162 173 0
-450 -455 -521 -102 -169 173 0
-451 -453 -521 -148 -83 173 0
-451 -454 -521 -148 -162 173 0
-451 -455 -521 -148 -169 173 0
-453 -456 -522 -83 -16 89 0
-453 -457 -522 -83 -110 89 0
-453 -458 -522 -83 -189 89 0
-454 -456 -522 -162 -16 89 0
-454 -457 -522 -162 -110 89 0
-454 -458 -522 -162 -189 89 0
-455 -456 -522 -169 -16 89 0
-455 -457 -522 -169 -110 89 0
-455 -458 -522 -169 -189 89 0
-453 -456 -523 -83 -16 141 0
-453 -457 -523 -83 -110 141 0
-453 -458 -523 -83 -189 141 0
-454 -456 -523 -162 -16 141 0
-454 -457 -523 -162 -110 141 0
-454 -458 -523 -162 -189 141 0
-455 -456 -523 -169 -16 141 0
-455 -457 -523 -169 -110 141 0
-455 -458 -523 -169 -189 141 0
-453 -456 -524 -83 -16 176 0
-453 -457 -524 -83 -110 176 0
-453 -458 -524 -83 -189 176 0
-454 -456 -524 -162 -16 176 0
-454 -457 -524 -162 -110 176 0
-454 -458 -524 -162 -189 176 0
-455 -456 -524 -169 -16 176 0
-455 -457 -524 -169 -110 176 0
-455 -458 -524 -169 -189 176 0
-456 -459 -525 -16 -33 125 0
-456 -460 -525 -16 -55 125 0
-456 -461 -525 -16 -77 125 0
-457 -459 -525 -110 -33 125 0
-457 -460 -525 -110 -55 125 0
-457 -461 -525 -110 -77 125 0
-458 -459 -525 -189 -33 125 0
-458 -460 -525 -189 -55 125 0
-458 -461 -525 -189 -77 125 0
-456 -459 -526 -16 -33 137 0
-456 -460 -526 -16 -55 137 0
-456 -461 -526 -16 -77 137 0
-457 -459 -526 -110 -33 137 0
-457 -460 -526 -110 -55 137 0
-457 -461 -526 -110 -77 137 0
-458 -459 -526 -189 -33 137 0
-458 -460 -526 -189 -55 137 0
-458 -461 -526 -189 -77 137 0
-456 -459 -527 -16 -33 197 0
-456 -460 -527 -16 -55 197 0
-456 -461 -527 -16 -77 197 0
-457 -459 -527 -110 -33 197 0
-457 -460 -527 -110 -55 197 0
-457 -461 -527 -110 -77 197 0
-458 -459 -527 -189 -33 197 0
-458 -460 -527 -189 -55 197 0
-458 -461 -527 -189 -77 197 0
-459 -462 -528 -33 -13 17 0
-459 -463 -528 -33 -19 17 0
-459 -464 -528 -33 -79 17 0
-460 -462 -528 -55 -13 17 0
-460 -463 -528 -55 -19 17 0
-460 -464 -528 -55 -79 17 0
-461 -462 -528 -77 -13 17 0
-461 -463 -528 -77 -19 17 0
-461 -464 -528 -77 -79 17 0
-459 -462 -529 -33 -13 61 0
-459 -463 -529 -33 -19 61 0
-459 -464 -529 -33 -79 61 0
-460 -462 -529 -55 -13 61 0
-460 -463 -529 -55 -19 61 0
-460 -464 -529 -55 -79 61 0
-461 -462 -529 -77 -13 61 0
-461 -463 -529 -77 -19 61 0
-461 -464 -529 -77 -79 61 0
-459 -462 -530 -33 -13 137 0
-459 -463 -530 -33 -19 137 0
-459 -464 -530 -33 -79 137 0
-460 -462 -530 -55 -13 137 0
-460 -463 -530 -55 -19 137 0
-460 -464 -530 -55 -79 137 0
-461 -462 -530 -77 -13 137 0
-461 -463 -530 -77 -19 137 0
-461 -464 -530 -77 -79 137 0
-462 -465 -531 -13 -20 11 0
-462 -466 -531 -13 -77 11 0
-462 -467 -531 -13 -80 11 0
-463 -465 -531 -19 -20 11 0
-463 -466 -531 -19 -77 11 0
-463 -467 -531 -19 -80 11 0
-464 -465 -531 -79 -20 11 0
-464 -466 -531 -79 -77 11 0
-464 -467 -531 -79 -80 11 0
-462 -465 -532 -13 -20 22 0
-462 -466 -532 -13 -77 22 0
-462 -467 -532 -13 -80 22 0
-463 -465 -532 -19 -20 22 0
-463 -466 -532 -19 -77 22 0
-463 -467 -532 -19 -80 22 0
-464 -465 -532 -79 -20 22 0
-464 -466 -532 -79 -77 22 0
-464 -467 -532 -79 -80 22 0
-462 -465 -533 -13 -20 186 0
-462 -466 -533 -13 -77 186 0
-462 -467 -533 -13 -80 186 0
-463 -465 -533 -19 -20 186 0
-463 -466 -533 -19 -77 186 0
-463 -467 -533 -19 -80 186 0
-464 -465 -533 -79 -20 186 0
-464 -466 -533 -79 -77 186 0
-464 -467 -533 -79 -80 186 0
-465 -468 -534 -20 -41 35 0
-465 -469 -534 -20 -107 35 0
-465 -470 -534 -20 -191 35 0
-466 -468 -534 -77 -41 35 0
-466 -469 -534 -77 -107 35 0
-466 -470 -534 -77 -191 35 0
-467 -468 -534 -80 -41 35 0
-467 -469 -534 -80 -107 35 0
-467 -470 -534 -80 -191 35 0
-465 -468 -535 -20 -41 43 0
-465 -469 -535 -20 -107 43 0
-465 -470 -535 -20 -191 43 0
-466 -468 -535 -77 -41 43 0
-466 -469 -535 -77 -107 43 0
-466 -470 -535 -77 -191 43 0
-467 -468 -535 -80 -41 43 0
-467 -469 -535 -80 -107 43 0
-467 -470 -535 -80 -191 43 0
-465 -468 -536 -20 -41 44 0
-465 -469 -536 -20 -107 44 0
-465 -470 -536 -20 -191 44 0
-466 -468 -536 -77 -41 44 0
-466 -469 -536 -77 -107 44 0
-466 -470 -536 -77 -191 44 0
-467 -468 -536 -80 -41 44 0
-467 -469 -536 -80 -107 44 0
-467 -470 -536 -80 -191 44 0
-468 -471 -537 -41 -34 55 0
-468 -472 -537 -41 -65 55 0
-468 -473 -537 -41 -145 55 0
-469 -471 -537 -107 -34 55 0
-469 -472 -537 -107 -65 55 0
-469 -473 -537 -107 -145 55 0
-470 -471 -537 -191 -34 55 0
-470 -472 -537 -191 -65 55 0
-470 -473 -537 -191 -145 55 0
-468 -471 -538 -41 -34 69 0
-468 -472 -538 -41 -65 69 0
-468 -473 -538 -41 -145 69 0
-469 -471 -538 -107 -34 69 0
-469 -472 -538 -107 -65 69 0
-469 -473 -538 -107 -145 69 0
-470 -471 -538 -191 -34 69 0
-470 -472 -538 -191 -65 69 0
-470 -473 -538 -191 -145 69 0
-468 -471 -539 -41 -34 138 0
-468 -472 -539 -41 -65 138 0
-468 -473 -539 -41 -145 138 0
-469 -471 -539 -107 -34 138 0
-469 -472 -539 -107 -65 138 0
-469 -473 -539 -107 -145 138 0
-470 -471 -539 -191 -34 138 0
-470 -472 -539 -191 -65 138 0
-470 -473 -539 -191 -145 138 0
-471 -474 -540 -34 -3 86 0
-471 -475 -540 -34 -10 86 0
-471 -476 -540 -34 -144 86 0
-472 -474 -540 -65 -3 86 0
-472 -475 -540 -65 -10 86 0
-472 -476 -540 -65 -144 86 0
-473 -474 -540 -145 -3 86 0
-473 -475 -540 -145 -10 86 0
-473 -476 -540 -145 -144 86 0
-471 -474 -541 -34 -3 154 0
-471 -475 -541 -34 -10 154 0
-471 -476 -541 -34 -144 154 0
-472 -474 -541 -65 -3 154 0
-472 -475 -541 -65 -10 154 0
-472 -476 -541 -65 -144 154 0
-473 -474 -541 -145 -3 154 0
-473 -475 -541 -145 -10 154 0
-473 -476 -541 -145 -144 154 0
-471 -474 -542 -34 -3 195 0
-471 -475 -542 -34 -10 195 0
-471 -476 -542 -34 -144 195 0
-472 -474 -542 -65 -3 195 0
-472 -475 -542 -65 -10 195 0
-472 -476 -542 -65 -144 195 0
-473 -474 -542 -145 -3 195 0
-473 -475 -542 -145 -10 195 0
-473 -476 -542 -145 -144 195 0
-474 -477 -543 -3 -56 66 0
-474 -478 -543 -3 -146 66 0
-474 -479 -543 -3 -152 66 0
-475 -477 -543 -10 -56 66 0
-475 -478 -543 -10 -146 66 0
-475 -479 -543 -10 -152 66 0
-476 -477 -543 -144 -56 66 0
-476 -478 -543 -144 -146 66 0
-476 -479 -543 -144 -152 66 0
-474 -477 -544 -3 -56 95 0
-474 -478 -544 -3 -146 95 0
-474 -479 -544 -3 -152 95 0
-475 -477 -544 -10 -56 95 0
-475 -478 -544 -10 -146 95 0
-475 -479 -544 -10 -152 95 0
-476 -477 -544 -144 -56 95 0
-476 -478 -544 -144 -146 95 0
-476 -479 -544 -144 -152 95 0
-474 -477 -545 -3 -56 130 0
-474 -478 -545 -3 -146 130 0
-474 -479 -545 -3 -152 130 0
-475 -477 -545 -10 -56 130 0
-475 -478 -545 -10 -146 130 0
-475 -479 -545 -10 -152 130 0
-476 -477 -545 -144 -56 130 0
-476 -478 -545 -144 -146 130 0
-476 -479 -545 -144 -152 130 0
-477 -480 -546 -56 -44 30 0
-477 -481 -546 -56 -118 30 0
-477 -482 -546 -56 -200 30 0
-478 -480 -546 -146 -44 30 0
-478 -481 -546 -146 -118 30 0
-478 -482 -546 -146 -200 30 0
-479 -480 -546 -152 -44 30 0
-479 -481 -546 -152 -118 30 0
-479 -482 -546 -152 -200 30 0
-477 -480 -547 -56 -44 87 0
-477 -481 -547 -56 -118 87 0
-477 -482 -547 -56 -200 87 0
-478 -480 -547 -146 -44 87 0
-478 -481 -547 -146 -118 87 0
-478 -482 -547 -146 -200 87 0
-479 -480 -547 -152 -44 87 0
-479 -481 -547 -152 -118 87 0
-479 -482 -547 -152 -200 87 0
-477 -480 -548 -56 -44 88 0
-477 -481 -548 -56 -118 88 0
-477 -482 -548 -56 -200 88 0
-478 -480 -548 -146 -44 88 0
-478 -481 -548 -146 -118 88 0
-478 -482 -548 -146 -200 88 0
-479 -480 -548 -152 -44 88 0
-479 -481 -548 -152 -118 88 0
-479 -482 -548 -152 -200 88 0
-480 -483 -549 -44 -131 61 0
-480 -484 -549 -44 -160 61 0
-480 -485 -549 -44 -181 61 0
-481 -483 -549 -118 -131 61 0
-481 -484 -549 -118 -160 61 0
-481 -485 -549 -118 -181 61 0
-482 -483 -549 -200 -131 61 0
-482 -484 -549 -200 -160 61 0
-482 -485 -549 -200 -181 61 0
-480 -483 -550 -44 -131 75 0
-480 -484 -550 -44 -160 75 0
-480 -485 -550 -44 -181 75 0
-481 -483 -550 -118 -131 75 0
-481 -484 -550 -118 -160 75 0
-481 -485 -550 -118 -181 75 0
-482 -483 -550 -200 -131 75 0
-482 -484 -550 -200 -160 75 0
-482 -485 -550 -200 -181 75 0
-480 -483 -551 -44 -131 155 0
-480 -484 -551 -44 -160 155 0
-480 -485 -551 -44 -181 155 0
-481 -483 -551 -118 -131 155 0
-481 -484 -551 -118 -160 155 0
-481 -485 -551 -118 -181 155 0
-482 -483 -551 -200 -131 155 0
-482 -484 -551 -200 -160 155 0
-482 -485 -551 -200 -181 155 0
-483 -486 -552 -131 -10 126 0
-483 -487 -552 -131 -52 126 0
-483 -488 -552 -131 -97 126 0
-484 -486 -552 -160 -10 126 0
-484 -487 -552 -160 -52 126 0
-484 -488 -552 -160 -97 126 0
-485 -486 -552 -181 -10 126 0
-485 -487 -552 -181 -52 126 0
-485 -488 -552 -181 -97 126 0
-483 -486 -553 -131 -10 184 0
-483 -487 -553 -131 -52 184 0
-483 -488 -553 -131 -97 184 0
-484 -486 -553 -160 -10 184 0
-484 -487 -553 -160 -52 184 0
-484 -488 -553 -160 -97 184 0
-485 -486 -553 -181 -10 184 0
-485 -487 -553 -181 -52 184 0
-485 -488 -553 -181 -97 184 0
-483 -486 -554 -131 -10 200 0
-483 -487 -554 -131 -52 200 0
-483 -488 -554 -131 -97 200 0
-484 -486 -554 -160 -10 200 0
-484 -487 -554 -160 -52 200 0
-484 -488 -554 -160 -97 200 0
-485 -486 -554 -181 -10 200 0
-485 -487 -554 -181 -52 200 0
-485 -488 -554 -181 -97 200 0
-486 -489 -555 -10 -26 35 0
-486 -490 -555 -10 -53 35 0
-486 -491 -555 -10 -89 35 0
-487 -489 -555 -52 -26 35 0
-487 -490 -555 -52 -53 35 0
-487 -491 -555 -52 -89 35 0
-488 -489 -555 -97 -26 35 0
-488 -490 -555 -97 -53 35 0
-488 -491 -555 -97 -89 35 0
-486 -489 -556 -10 -26 142 0
-486 -490 -556 -10 -53 142 0
-486 -491 -556 -10 -89 142 0
-487 -489 -556 -52 -26 142 0
-487 -490 -556 -52 -53 142 0
-487 -491 -556 -52 -89 142 0
-488 -489 -556 -97 -26 142 0
-488 -490 -556 -97 -53 142 0
-488 -491 -556 -97 -89 142 0
-486 -489 -557 -10 -26 149 0
-486 -490 -557 -10 -53 149 0
-486 -491 -557 -10 -89 149 0
-487 -489 -557 -52 -26 149 0
-487 -490 -557 -52 -53 149 0
-487 -491 -557 -52 -89 149 0
-488 -489 -557 -97 -26 149 0
-488 -490 -557 -97 -53 149 0
-488 -491 -557 -97 -89 149 0
-489 -492 -558 -26 -111 27 0
-489 -493 -558 -26 -147 27 0
-489 -494 -558 -26 -173 27 0
-490 -492 -558 -53 -111 27 0
-490 -493 -558 -53 -147 27 0
-490 -494 -558 -53 -173 27 0
-491 -492 -558 -89 -111 27 0
-491 -493 -558 -89 -147 27 0
-491 -494 -558 -89 -173 27 0
-489 -492 -559 -26 -111 83 0
-489 -493 -559 -26 -147 83 0
-489 -494 -559 -26 -173 83 0
-490 -492 -559 -53 -111 83 0
-490 -493 -559 -53 -147 83 0
-490 -494 -559 -53 -173 83 0
-491 -492 -559 -89 -111 83 0
-491 -493 -559 -89 -147 83 0
-491 -494 -559 -89 -173 83 0
-489 -492 -560 -26 -111 198 0
-489 -493 -560 -26 -147 198 0
-489 -494 -560 -26 -173 198 0
-490 -492 -560 -53 -111 198 0
-490 -493 -560 -53 -147 198 0
-490 -494 -560 -53 -173 198 0
-491 -492 -560 -89 -111 198 0
-491 -493 -560 -89 -147 198 0
-491 -494 -560 -89 -173 198 0
-495 -498 -561 -50 -27 11 0
-495 -499 -561 -50 -100 11 0
-495 -500 -561 -50 -171 11 0
-496 -498 -561 -127 -27 11 0
-496 -499 -561 -127 -100 11 0
-496 -500 -561 -127 -171 11 0
-497 -498 -561 -152 -27 11 0
-497 -499 -561 -152 -100 11 0
-497 -500 -561 -152 -171 11 0
-495 -498 -562 -50 -27 19 0
-495 -499 -562 -50 -100 19 0
-495 -500 -562 -50 -171 19 0
-496 -498 -562 -127 -27 19 0
-496 -499 -562 -127 -100 19 0
-496 -500 -562 -127 -171 19 0
-497 -498 -562 -152 -27 19 0
-497 -499 -562 -152 -100 19 0
-497 -500 -562 -152 -171 19 0
-495 -498 -563 -50 -27 105 0
-495 -499 -563 -50 -100 105 0
-495 -500 -563 -50 -171 105 0
-496 -498 -563 -127 -27 105 0
-496 -499 -563 -127 -100 105 0
-496 -500 -563 -127 -171 105 0
-497 -498 -563 -152 -27 105 0
-497 -499 -563 -152 -100 105 0
-497 -500 -563 -152 -171 105 0
-498 -501 -564 -27 -76 33 0
-498 -502 -564 -27 -128 33 0
-498 -503 -564 -27 -130 33 0
-499 -501 -564 -100 -76 33 0
-499 -502 -564 -100 -128 33 0
-499 -503 -564 -100 -130 33 0
-500 -501 -564 -171 -76 33 0
-500 -502 -564 -171 -128 33 0
-500 -503 -564 -171 -130 33 0
-498 -501 -565 -27 -76 38 0
-498 -502 -565 -27 -128 38 0
-498 -503 -565 -27 -130 38 0
-499 -501 -565 -100 -76 38 0
-499 -502 -565 -100 -128 38 0
-499 -503 -565 -100 -130 38 0
-500 -501 -565 -171 -76 38 0
-500 -502 -565 -171 -128 38 0
-500 -503 -565 -171 -130 38 0
-498 -501 -566 -27 -76 98 0
-498 -502 -566 -27 -128 98 0
-498 -503 -566 -27 -130 98 0
-499 -501 -566 -100 -76 98 0
-499 -502 -566 -100 -128 98 0
-499 -503 -566 -100 -130 98 0
-500 -501 -566 -171 -76 98 0
-500 -502 -566 -171 -128 98 0
-500 -503 -566 -171 -130 98 0
-501 -504 -567 -76 -5 30 0
-501 -505 -567 -76 -84 30 0
-501 -506 -567 -76 -157 30 0
-502 -504 -567 -128 -5 30 0
-502 -505 -567 -128 -84 30 0
-502 -506 -567 -128 -157 30 0
-503 -504 -567 -130 -5 30 0
-503 -505 -567 -130 -84 30 0
-503 -506 -567 -130 -157 30 0
-501 -504 -568 -76 -5 88 0
-501 -505 -568 -76 -84 88 0
-501 -506 -568 -76 -157 88 0
-502 -504 -568 -128 -5 88 0
-502 -505 -568 -128 -84 88 0
-502 -506 -568 -128 -157 88 0
-503 -504 -568 -130 -5 88 0
-503 -505 -568 -130 -84 88 0
-503 -506 -568 -130 -157 88 0
-501 -504 -569 -76 -5 158 0
-501 -505 -569 -76 -84 158 0
-501 -506 -569 -76 -157 158 0
-502 -504 -569 -128 -5 158 0
-502 -505 -569 -128 -84 158 0
-502 -506 -569 -128 -157 158 0
-503 -504 -569 -130 -5 158 0
-503 -505 -569 -130 -84 158 0
-503 -506 -569 -130 -157 158 0
-504 -507 -570 -5 20 0
-504 -508 -570 -5 -73 20 0
-504 -509 -570 -5 -103 20 0
-505 -507 -570 -84 -5 20 0
-505 -508 -570 -84 -73 20 0
-505 -509 -570 -84 -103 20 0
-506 -507 -570 -157 -5 20 0
-506 -508 -570 -157 -73 20 0
-506 -509 -570 -157 -103 20 0
-504 -507 -571 -5 97 0
-504 -508 -571 -5 -73 97 0
-504 -509 -571 -5 -103 97 0
-505 -507 -571 -84 -5 97 0
-505 -508 -571 -84 -73 97 0
-505 -509 -571 -84 -103 97 0
-506 -507 -571 -157 -5 97 0
-506 -508 -571 -157 -73 97 0
-506 -509 -571 -157 -103 97 0
-504 -507 -572 -5 151 0
-504 -508 -572 -5 -73 151 0
-504 -509 -572 -5 -103 151 0
-505 -507 -572 -84 -5 151 0
-505 -508 -572 -84 -73 151 0
-505 -509 -572 -84 -103 151 0
-506 -507 -572 -157 -5 151 0
-506 -508 -572 -157 -73 151 0
-506 -509 -572 -157 -103 151 0
-507 -510 -573 -5 -41 58 0
-507 -511 -573 -5 -52 58 0
-507 -512 -573 -5 -84 58 0
-508 -510 -573 -73 -41 58 0
-508 -511 -573 -73 -52 58 0
-508 -512 -573 -73 -84 58 0
-509 -510 -573 -103 -41 58 0
-509 -511 -573 -103 -52 58 0
-509 -512 -573 -103 -84 58 0
-507 -510 -574 -5 -41 141 0
-507 -511 -574 -5 -52 141 0
-507 -512 -574 -5 -84 141 0
-508 -510 -574 -73 -41 141 0
-508 -511 -574 -73 -52 141 0
-508 -512 -574 -73 -84 141 0
-509 -510 -574 -103 -41 141 0
-509 -511 -574 -103 -52 141 0
-509 -512 -574 -103 -84 141 0
-507 -510 -575 -5 -41 147 0
-507 -511 -575 -5 -52 147 0
-507 -512 -575 -5 -84 147 0
-508 -510 -575 -73 -41 147 0
-508 -511 -575 -73 -52 147 0
-508 -512 -575 -73 -84 147 0
-509 -510 -575 -103 -41 147 0
-509 -511 -575 -103 -52 147 0
-509 -512 -575 -103 -84 147 0
-510 -513 -576 -41 -35 21 0
-510 -514 -576 -41 -87 21 0
-510 -515 -576 -41 -145 21 0
-511 -513 -576 -52 -35 21 0
-511 -514 -576 -52 -87 21 0
-511 -515 -576 -52 -145 21 0
-512 -513 -576 -84 -35 21 0
-512 -514 -576 -84 -87 21 0
-512 -515 -576 -84 -145 21 0
-510 -513 -577 -41 -35 69 0
-510 -514 -577 -41 -87 69 0
-510 -515 -577 -41 -145 69 0
-511 -513 -577 -52 -35 69 0
-511 -514 -577 -52 -87 69 0
-511 -515 -577 -52 -145 69 0
-512 -513 -577 -84 -35 69 0
-512 -514 -577 -84 -87 69 0
-512 -515 -577 -84 -145 69 0
-510 -513 -578 -41 -35 145 0
-510 -514 -578 -41 -87 145 0
-511 -513 -578 -52 -35 145 0
-511 -514 -578 -52 -87 145 0
-512 -513 -578 -84 -35 145 0
-512 -514 -578 -84 -87 145 0
-513 -516 -579 -35 -55 76 0
-513 -517 -579 -35 -69 76 0
-513 -518 -579 -35 -110 76 0
-514 -516 -579 -87 -55 76 0
-514 -517 -579 -87 -69 76 0
-514 -518 -579 -87 -110 76 0
-515 -516 -579 -145 -55 76 0
-515 -517 -579 -145 -69 76 0
-515 -518 -579 -145 -110 76 0
-513 -516 -580 -35 -55 94 0
-513 -517 -580 -35 -69 94 0
-513 -518 -580 -35 -110 94 0
-514 -516 -580 -87 -55 94 0
-514 -517 -580 -87 -69 94 0
-514 -518 -580 -87 -110 94 0
-515 -516 -580 -145 -55 94 0
-515 -517 -580 -145 -69 94 0
-515 -518 -580 -145 -110 94 0
-513 -516 -581 -35 -55 145 0
-513 -517 -581 -35 -69 145 0
-513 -518 -581 -35 -110 145 0
-514 -516 -581 -87 -55 145 0
-514 -517 -581 -87 -69 145 0
-514 -518 -581 -87 -110 145 0
-516 -519 -582 -55 -25 30 0
-516 -520 -582 -55 -98 30 0
-516 -521 -582 -55 -173 30 0
-517 -519 -582 -69 -25 30 0
-517 -520 -582 -69 -98 30 0
-517 -521 -582 -69 -173 30 0
-518 -519 -582 -110 -25 30 0
-518 -520 -582 -110 -98 30 0
-518 -521 -582 -110 -173 30 0
-516 -519 -583 -55 -25 118 0
-516 -520 -583 -55 -98 118 0
-516 -521 -583 -55 -173 118 0
-517 -519 -583 -69 -25 118 0
-517 -520 -583 -69 -98 118 0
-517 -521 -583 -69 -173 118 0
-518 -519 -583 -110 -25 118 0
-518 -520 -583 -110 -98 118 0
-518 -521 -583 -110 -173 118 0
-516 -519 -584 -55 -25 137 0
-516 -520 -584 -55 -98 137 0
-516 -521 -584 -55 -173 137 0
-517 -519 -584 -69 -25 137 0
-517 -520 -584 -69 -98 137 0
-517 -521 -584 -69 -173 137 0
-518 -519 -584 -110 -25 137 0
-518 -520 -584 -110 -98 137 0
-518 -521 -584 -110 -173 137 0
-519 -522 -585 -25 -89 12 0
-519 -523 -585 -25 -141 12 0
-519 -524 -585 -25 -176 12 0
-520 -522 -585 -98 -89 12 0
-520 -523 -585 -98 -141 12 0
-520 -524 -585 -98 -176 12 0
-521 -522 -585 -173 -89 12 0
-521 -523 -585 -173 -141 12 0
-521 -524 -585 -173 -176 12 0
-519 -522 -586 -25 -89 28 0
-519 -523 -586 -25 -141 28 0
-519 -524 -586 -25 -176 28 0
-520 -522 -586 -98 -89 28 0
-520 -523 -586 -98 -141 28 0
-520 -524 -586 -98 -176 28 0
-521 -522 -586 -173 -89 28 0
-521 -523 -586 -173 -141 28 0
-521 -524 -586 -173 -176 28 0
-519 -522 -587 -25 -89 71 0
-519 -523 -587 -25 -141 71 0
-519 -524 -587 -25 -176 71 0
-520 -522 -587 -98 -89 71 0
-520 -523 -587 -98 -141 71 0
-520 -524 -587 -98 -176 71 0
-521 -522 -587 -173 -89 71 0
-521 -523 -587 -173 -141 71 0
-521 -524 -587 -173 -176 71 0
-522 -525 -588 -89 -125 4 0
-522 -526 -588 -89 -137 4 0
-522 -527 -588 -89 -197 4 0
-523 -525 -588 -141 -125 4 0
-523 -526 -588 -141 -137 4 0
-523 -527 -588 -141 -197 4 0
-524 -525 -588 -176 -125 4 0
-524 -526 -588 -176 -137 4 0
-524 -527 -588 -176 -197 4 0
-522 -525 -589 -89 -125 76 0
-522 -526 -589 -89 -137 76 0
-522 -527 -589 -89 -197 76 0
-523 -525 -589 -141 -125 76 0
-523 -526 -589 -141 -137 76 0
-523 -527 -589 -141 -197 76 0
-524 -525 -589 -176 -125 76 0
-524 -526 -589 -176 -137 76 0
-524 -527 -589 -176 -197 76 0
-522 -525 -590 -89 -125 158 0
-522 -526 -590 -89 -137 158 0
-522 -527 -590 -89 -197 158 0
-523 -525 -590 -141 -125 158 0
-523 -526 -590 -141 -137 158 0
-523 -527 -590 -141 -197 158 0
-524 -525 -590 -176 -125 158 0
-524 -526 -590 -176 -137 158 0
-524 -527 -590 -176 -197 158 0
-525 -528 -591 -125 -17 4 0
-525 -529 -591 -125 -61 4 0
-525 -530 -591 -125 -137 4 0
-526 -528 -591 -137 -17 4 0
-526 -529 -591 -137 -61 4 0
-526 -530 -591 -137 4 0
-527 -528 -591 -197 -17 4 0
-527 -529 -591 -197 -61 4 0
-527 -530 -591 -197 -137 4 0
-525 -528 -592 -125 -17 24 0
-525 -529 -592 -125 -61 24 0
-525 -530 -592 -125 -137 24 0
-526 -528 -592 -137 -17 24 0
-526 -529 -592 -137 -61 24 0
-526 -530 -592 -137 24 0
-527 -528 -592 -197 -17 24 0
-527 -529 -592 -197 -61 24 0
-527 -530 -592 -197 -137 24 0
-525 -528 -593 -125 -17 172 0
-525 -529 -593 -125 -61 172 0
-525 -530 -593 -125 -137 172 0
-526 -528 -593 -137 -17 172 0
-526 -529 -593 -137 -61 172 0
-526 -530 -593 -137 172 0
-527 -528 -593 -197 -17 172 0
-527 -529 -593 -197 -61 172 0
-527 -530 -593 -197 -137 172 0
-528 -532 -594 -17 -22 11 0
-528 -533 -594 -17 -186 11 0
-529 -532 -594 -61 -22 11 0
-529 -533 -594 -61 -186 11 0
-530 -532 -594 -137 -22 11 0
-530 -533 -594 -137 -186 11 0
-528 -531 -595 -17 -11 30 0
-528 -532 -595 -17 -22 30 0
-528 -533 -595 -17 -186 30 0
-529 -531 -595 -61 -11 30 0
-529 -532 -595 -61 -22 30 0
-529 -533 -595 -61 -186 30 0
-530 -531 -595 -137 -11 30 0
-530 -532 -595 -137 -22 30 0
-530 -533 -595 -137 -186 30 0
-528 -531 -596 -17 -11 106 0
-528 -532 -596 -17 -22 106 0
-528 -533 -596 -17 -186 106 0
-529 -531 -596 -61 -11 106 0
-529 -532 -596 -61 -22 106 0
-529 -533 -596 -61 -186 106 0
-530 -531 -596 -137 -11 106 0
-530 -532 -596 -137 -22 106 0
-530 -533 -596 -137 -186 106 0
-531 -534 -597 -11 -35 49 0
-531 -535 -597 -11 -43 49 0
-531 -536 -597 -11 -44 49 0
-532 -534 -597 -22 -35 49 0
-532 -535 -597 -22 -43 49 0
-532 -536 -597 -22 -44 49 0
-533 -534 -597 -186 -35 49 0
-533 -535 -597 -186 -43 49 0
-533 -536 -597 -186 -44 49 0
-531 -534 -598 -11 -35 62 0
-531 -535 -598 -11 -43 62 0
-531 -536 -598 -11 -44 62 0
-532 -534 -598 -22 -35 62 0
-532 -535 -598 -22 -43 62 0
-532 -536 -598 -22 -44 62 0
-533 -534 -598 -186 -35 62 0
-533 -535 -598 -186 -43 62 0
-533 -536 -598 -186 -44 62 0
-531 -534 -599 -11 -35 151 0
-531 -535 -599 -11 -43 151 0
-531 -536 -599 -11 -44 151 0
-532 -534 -599 -22 -35 151 0
-532 -535 -599 -22 -43 151 0
-532 -536 -599 -22 -44 151 0
-533 -534 -599 -186 -35 151 0
-533 -535 -599 -186 -43 151 0
-533 -536 -599 -186 -44 151 0
-534 -537 -600 -35 -55 30 0
-534 -538 -600 -35 -69 30 0
-534 -539 -600 -35 -138 30 0
-535 -537 -600 -43 -55 30 0
-535 -538 -600 -43 -69 30 0
-535 -539 -600 -43 -138 30 0
-536 -537 -600 -44 -55 30 0
-536 -538 -600 -44 -69 30 0
-536 -539 -600 -44 -138 30 0
-534 -537 -601 -35 -55 42 0
-534 -538 -601 -35 -69 42 0
-534 -539 -601 -35 -138 42 0
-535 -537 -601 -43 -55 42 0
-535 -538 -601 -43 -69 42 0
-535 -539 -601 -43 -138 42 0
-536 -537 -601 -44 -55 42 0
-536 -538 -601 -44 -69 42 0
-536 -539 -601 -44 -138 42 0
-534 -537 -602 -35 -55 108 0
-534 -538 -602 -35 -69 108 0
-534 -539 -602 -35 -138 108 0
-535 -537 -602 -43 -55 108 0
-535 -538 -602 -43 -69 108 0
-535 -539 -602 -43 -138 108 0
-536 -537 -602 -44 -55 108 0
-536 -538 -602 -44 -69 108 0
-536 -539 -602 -44 -138 108 0
-537 -540 -603 -55 -86 43 0
-537 -541 -603 -55 -154 43 0
-537 -542 -603 -55 -195 43 0
-538 -540 -603 -69 -86 43 0
-538 -541 -603 -69 -154 43 0
-538 -542 -603 -69 -195 43 0
-539 -540 -603 -138 -86 43 0
-539 -541 -603 -138 -154 43 0
-539 -542 -603 -138 -195 43 0
-537 -540 -604 -55 -86 116 0
-537 -541 -604 -55 -154 116 0
-537 -542 -604 -55 -195 116 0
-538 -540 -604 -69 -86 116 0
-538 -541 -604 -69 -154 116 0
-538 -542 -604 -69 -195 116 0
-539 -540 -604 -138 -86 116 0
-539 -541 -604 -138 -154 116 0
-539 -542 -604 -138 -195 116 0
-537 -540 -605 -55 -86 175 0
-537 -541 -605 -55 -154 175 0
-537 -542 -605 -55 -195 175 0
-538 -540 -605 -69 -86 175 0
-538 -541 -605 -69 -154 175 0
-538 -542 -605 -69 -195 175 0
-539 -540 -605 -138 -86 175 0
-539 -541 -605 -138 -154 175 0
-539 -542 -605 -138 -195 175 0
-540 -543 -606 -86 -66 41 0
-540 -544 -606 -86 -95 41 0
-540 -545 -606 -86 -130 41 0
-541 -543 -606 -154 -66 41 0
-541 -544 -606 -154 -95 41 0
-541 -545 -606 -154 -130 41 0
-542 -543 -606 -195 -66 41 0
-542 -544 -606 -195 -95 41 0
-542 -545 -606 -195 -130 41 0
-540 -543 -607 -86 -66 62 0
-540 -544 -607 -86 -95 62 0
-540 -545 -607 -86 -130 62 0
-541 -543 -607 -154 -66 62 0
-541 -544 -607 -154 -95 62 0
-541 -545 -607 -154 -130 62 0
-542 -543 -607 -195 -66 62 0
-542 -544 -607 -195 -95 62 0
-542 -545 -607 -195 -130 62 0
-540 -543 -608 -86 -66 191 0
-540 -544 -608 -86 -95 191 0
-540 -545 -608 -86 -130 191 0
-541 -543 -608 -154 -66 191 0
-541 -544 -608 -154 -95 191 0
-541 -545 -608 -154 -130 191 0
-542 -543 -608 -195 -66 191 0
-542 -544 -608 -195 -95 191 0
-542 -545 -608 -195 -130 191 0
-543 -546 -609 -66 -30 27 0
-543 -547 -609 -66 -87 27 0
-543 -548 -609 -66 -88 27 0
-544 -546 -609 -95 -30 27 0
-544 -547 -609 -95 -87 27 0
-544 -548 -609 -95 -88 27 0
-545 -546 -609 -130 -30 27 0
-545 -547 -609 -130 -87 27 0
-545 -548 -609 -130 -88 27 0
-543 -546 -610 -66 -30 97 0
-543 -547 -610 -66 -87 97 0
-543 -548 -610 -66 -88 97 0
-544 -546 -610 -95 -30 97 0
-544 -547 -610 -95 -87 97 0
-544 -548 -610 -95 -88 97 0
-545 -546 -610 -130 -30 97 0
-545 -547 -610 -130 -87 97 0
-545 -548 -610 -130 -88 97 0
-543 -546 -611 -66 -30 112 0
-543 -547 -611 -66 -87 112 0
-543 -548 -611 -66 -88 112 0
-544 -546 -611 -95 -30 112 0
-544 -547 -611 -95 -87 112 0
-544 -548 -611 -95 -88 112 0
-545 -546 -611 -130 -30 112 0
-545 -547 -611 -130 -87 112 0
-545 -548 -611 -130 -88 112 0
-546 -549 -612 -30 -61 76 0
-546 -550 -612 -30 -75 76 0
-546 -551 -612 -30 -155 76 0
-547 -549 -612 -87 -61 76 0
-547 -550 -612 -87 -75 76 0
-547 -551 -612 -87 -155 76 0
-548 -549 -612 -88 -61 76 0
-548 -550 -612 -88 -75 76 0
-548 -551 -612 -88 -155 76 0
-546 -549 -613 -30 -61 139 0
-546 -550 -613 -30 -75 139 0
-546 -551 -613 -30 -155 139 0
-547 -549 -613 -87 -61 139 0
-547 -550 -613 -87 -75 139 0
-547 -551 -613 -87 -155 139 0
-548 -549 -613 -88 -61 139 0
-548 -550 -613 -88 -75 139 0
-548 -551 -613 -88 -155 139 0
-546 -549 -614 -30 -61 141 0
-546 -550 -614 -30 -75 141 0
-546 -551 -614 -30 -155 141 0
-547 -549 -614 -87 -61 141 0
-547 -550 -614 -87 -75 141 0
-547 -551 -614 -87 -155 141 0
-548 -549 -614 -88 -61 141 0
-548 -550 -614 -88 -75 141 0
-548 -551 -614 -88 -155 141 0
-549 -552 -615 -61 -126 65 0
-549 -553 -615 -61 -184 65 0
-549 -554 -615 -61 -200 65 0
-550 -552 -615 -75 -126 65 0
-550 -553 -615 -75 -184 65 0
-550 -554 -615 -75 -200 65 0
-551 -552 -615 -155 -126 65 0
-551 -553 -615 -155 -184 65 0
-551 -554 -615 -155 -200 65 0
-549 -552 -616 -61 -126 123 0
-549 -553 -616 -61 -184 123 0
-549 -554 -616 -61 -200 123 0
-550 -552 -616 -75 -126 123 0
-550 -553 -616 -75 -184 123 0
-550 -554 -616 -75 -200 123 0
-551 -552 -616 -155 -126 123 0
-551 -553 -616 -155 -184 123 0
-551 -554 -616 -155 -200 123 0
-549 -552 -617 -61 -126 183 0
-549 -553 -617 -61 -184 183 0
-549 -554 -617 -61 -200 183 0
-550 -552 -617 -75 -126 183 0
-550 -553 -617 -75 -184 183 0
-550 -554 -617 -75 -200 183 0
-551 -552 -617 -155 -126 183 0
-551 -553 -617 -155 -184 183 0
-551 -554 -617 -155 -200 183 0
-552 -555 -618 -126 -35 26 0
-552 -556 -618 -126 -142 26 0
-552 -557 -618 -126 -149 26 0
-553 -555 -618 -184 -35 26 0
-553 -556 -618 -184 -142 26 0
-553 -557 -618 -184 -149 26 0
-554 -555 -618 -200 -35 26 0
-554 -556 -618 -200 -142 26 0
-554 -557 -618 -200 -149 26 0
-552 -555 -619 -126 -35 54 0
-552 -556 -619 -126 -142 54 0
-552 -557 -619 -126 -149 54 0
-553 -555 -619 -184 -35 54 0
-553 -556 -619 -184 -142 54 0
-553 -557 -619 -184 -149 54 0
-554 -555 -619 -200 -35 54 0
-554 -556 -619 -200 -142 54 0
-554 -557 -619 -200 -149 54 0
-552 -555 -620 -126 -35 81 0
-552 -556 -620 -126 -142 81 0
-552 -557 -620 -126 -149 81 0
-553 -555 -620 -184 -35 81 0
-553 -556 -620 -184 -142 81 0
-553 -557 -620 -184 -149 81 0
-554 -555 -620 -200 -35 81 0
-554 -556 -620 -200 -142 81 0
-554 -557 -620 -200 -149 81 0
-555 -558 -621 -35 -27 11 0
-555 -559 -621 -35 -83 11 0
-555 -560 -621 -35 -198 11 0
-556 -558 -621 -142 -27 11 0
-556 -559 -621 -142 -83 11 0
-556 -560 -621 -142 -198 11 0
-557 -558 -621 -149 -27 11 0
-557 -559 -621 -149 -83 11 0
-557 -560 -621 -149 -198 11 0
-555 -558 -622 -35 -27 82 0
-555 -559 -622 -35 -83 82 0
-555 -560 -622 -35 -198 82 0
-556 -558 -622 -142 -27 82 0
-556 -559 -622 -142 -83 82 0
-556 -560 -622 -142 -198 82 0
-557 -558 -622 -149 -27 82 0
-557 -559 -622 -149 -83 82 0
-557 -560 -622 -149 -198 82 0
-555 -558 -623 -35 -27 167 0
-555 -559 -623 -35 -83 167 0
-555 -560 -623 -35 -198 167 0
-556 -558 -623 -142 -27 167 0
-556 -559 -623 -142 -83 167 0
-556 -560 -623 -142 -198 167 0
-557 -558 -623 -149 -27 167 0
-557 -559 -623 -149 -83 167 0
-557 -560 -623 -149 -198 167 0
-561 -564 -624 -11 -33 3 0
-561 -565 -624 -11 -38 3 0
-561 -566 -624 -11 -98 3 0
-562 -564 -624 -19 -33 3 0
-562 -565 -624 -19 -38 3 0
-562 -566 -624 -19 -98 3 0
-563 -564 -624 -105 -33 3 0
-563 -565 -624 -105 -38 3 0
-563 -566 -624 -105 -98 3 0
-561 -564 -625 -11 -33 7 0
-561 -565 -625 -11 -38 7 0
-561 -566 -625 -11 -98 7 0
-562 -564 -625 -19 -33 7 0
-562 -565 -625 -19 -38 7 0
-562 -566 -625 -19 -98 7 0
-563 -564 -625 -105 -33 7 0
-563 -565 -625 -105 -38 7 0
-563 -566 -625 -105 -98 7 0
-561 -564 -626 -11 -33 76 0
-561 -565 -626 -11 -38 76 0
-561 -566 -626 -11 -98 76 0
-562 -564 -626 -19 -33 76 0
-562 -565 -626 -19 -38 76 0
-562 -566 -626 -19 -98 76 0
-563 -564 -626 -105 -33 76 0
-563 -565 -626 -105 -38 76 0
-563 -566 -626 -105 -98 76 0
-564 -567 -627 -33 -30 82 0
-564 -568 -627 -33 -88 82 0
-564 -569 -627 -33 -158 82 0
-565 -567 -627 -38 -30 82 0
-565 -568 -627 -38 -88 82 0
-565 -569 -627 -38 -158 82 0
-566 -567 -627 -98 -30 82 0
-566 -568 -627 -98 -88 82 0
-566 -569 -627 -98 -158 82 0
-564 -567 -628 -33 -30 153 0
-564 -568 -628 -33 -88 153 0
-564 -569 -628 -33 -158 153 0
-565 -567 -628 -38 -30 153 0
-565 -568 -628 -38 -88 153 0
-565 -569 -628 -38 -158 153 0
-566 -567 -628 -98 -30 153 0
-566 -568 -628 -98 -88 153 0
-566 -569 -628 -98 -158 153 0
-564 -567 -629 -33 -30 186 0
-564 -568 -629 -33 -88 186 0
-564 -569 -629 -33 -158 186 0
-565 -567 -629 -38 -30 186 0
-565 -568 -629 -38 -88 186 0
-565 -569 -629 -38 -158 186 0
-566 -567 -629 -98 -30 186 0
-566 -568 -629 -98 -88 186 0
-566 -569 -629 -98 -158 186 0
-567 -570 -630 -30 -20 81 0
-567 -571 -630 -30 -97 81 0
-567 -572 -630 -30 -151 81 0
-568 -570 -630 -88 -20 81 0
-568 -571 -630 -88 -97 81 0
-568 -572 -630 -88 -151 81 0
-569 -570 -630 -158 -20 81 0
-569 -571 -630 -158 -97 81 0
-569 -572 -630 -158 -151 81 0
-567 -570 -631 -30 -20 101 0
-567 -571 -631 -30 -97 101 0
-567 -572 -631 -30 -151 101 0
-568 -570 -631 -88 -20 101 0
-568 -571 -631 -88 -97 101 0
-568 -572 -631 -88 -151 101 0
-569 -570 -631 -158 -20 101 0
-569 -571 -631 -158 -97 101 0
-569 -572 -631 -158 -151 101 0
-567 -570 -632 -30 -20 116 0
-567 -571 -632 -30 -97 116 0
-567 -572 -632 -30 -151 116 0
-568 -570 -632 -88 -20 116 0
-568 -571 -632 -88 -97 116 0
-568 -572 -632 -88 -151 116 0
-569 -570 -632 -158 -20 116 0
-569 -571 -632 -158 -97 116 0
-569 -572 -632 -158 -151 116 0
-570 -573 -633 -20 -58 17 0
-570 -574 -633 -20 -141 17 0
-570 -575 -633 -20 -147 17 0
-571 -573 -633 -97 -58 17 0
-571 -574 -633 -97 -141 17 0
-571 -575 -633 -97 -147 17 0
-572 -573 -633 -151 -58 17 0
-572 -574 -633 -151 -141 17 0
-572 -575 -633 -151 -147 17 0
-570 -573 -634 -20 -58 82 0
-570 -574 -634 -20 -141 82 0
-570 -575 -634 -20 -147 82 0
-571 -573 -634 -97 -58 82 0
-571 -574 -634 -97 -141 82 0
-571 -575 -634 -97 -147 82 0
-572 -573 -634 -151 -58 82 0
-572 -574 -634 -151 -141 82 0
-572 -575 -634 -151 -147 82 0
-570 -573 -635 -20 -58 103 0
-570 -574 -635 -20 -141 103 0
-570 -575 -635 -20 -147 103 0
-571 -573 -635 -97 -58 103 0
-571 -574 -635 -97 -141 103 0
-571 -575 -635 -97 -147 103 0
-572 -573 -635 -151 -58 103 0
-572 -574 -635 -151 -141 103 0
-572 -575 -635 -151 -147 103 0
-573 -576 -636 -58 -21 29 0
-573 -577 -636 -58 -69 29 0
-573 -578 -636 -58 -145 29 0
-574 -576 -636 -141 -21 29 0
-574 -577 -636 -141 -69 29 0
-574 -578 -636 -141 -145 29 0
-575 -576 -636 -147 -21 29 0
-575 -577 -636 -147 -69 29 0
-575 -578 -636 -147 -145 29 0
-573 -576 -637 -58 -21 117 0
-573 -577 -637 -58 -69 117 0
-573 -578 -637 -58 -145 117 0
-574 -576 -637 -141 -21 117 0
-574 -577 -637 -141 -69 117 0
-574 -578 -637 -141 -145 117 0
-575 -576 -637 -147 -21 117 0
-575 -577 -637 -147 -69 117 0
-575 -578 -637 -147 -145 117 0
-573 -576 -638 -58 -21 154 0
-573 -577 -638 -58 -69 154 0
-573 -578 -638 -58 -145 154 0
-574 -576 -638 -141 -21 154 0
-574 -577 -638 -141 -69 154 0
-574 -578 -638 -141 -145 154 0
-575 -576 -638 -147 -21 154 0
-575 -577 -638 -147 -69 154 0
-575 -578 -638 -147 -145 154 0
-576 -579 -639 -21 -76 56 0
-576 -580 -639 -21 -94 56 0
-576 -581 -639 -21 -145 56 0
-577 -579 -639 -69 -76 56 0
-577 -580 -639 -69 -94 56 0
-577 -581 -639 -69 -145 56 0
-578 -579 -639 -145 -76 56 0
-578 -580 -639 -145 -94 56 0
-578 -581 -639 -145 56 0
-576 -579 -640 -21 -76 65 0
-576 -580 -640 -21 -94 65 0
-576 -581 -640 -21 -145 65 0
-577 -579 -640 -69 -76 65 0
-577 -580 -640 -69 -94 65 0
-577 -581 -640 -69 -145 65 0
-578 -579 -640 -145 -76 65 0
-578 -580 -640 -145 -94 65 0
-578 -581 -640 -145 65 0
-576 -579 -641 -21 -76 159 0
-576 -580 -641 -21 -94 159 0
-576 -581 -641 -21 -145 159 0
-577 -579 -641 -69 -76 159 0
-577 -580 -641 -69 -94 159 0
-577 -581 -641 -69 -145 159 0
-578 -579 -641 -145 -76 159 0
-578 -580 -641 -145 -94 159 0
-578 -581 -641 -145 159 0
-579 -582 -642 -76 -30 139 0
-579 -583 -642 -76 -118 139 0
-579 -584 -642 -76 -137 139 0
-580 -582 -642 -94 -30 139 0
-580 -583 -642 -94 -118 139 0
-580 -584 -642 -94 -137 139 0
-581 -582 -642 -145 -30 139 0
-581 -583 -642 -145 -118 139 0
-581 -584 -642 -145 -137 139 0
-579 -582 -643 -76 -30 177 0
-579 -583 -643 -76 -118 177 0
-579 -584 -643 -76 -137 177 0
-580 -582 -643 -94 -30 177 0
-580 -583 -643 -94 -118 177 0
-580 -584 -643 -94 -137 177 0
-581 -582 -643 -145 -30 177 0
-581 -583 -643 -145 -118 177 0
-581 -584 -643 -145 -137 177 0
-579 -582 -644 -76 -30 200 0
-579 -583 -644 -76 -118 200 0
-579 -584 -644 -76 -137 200 0
-580 -582 -644 -94 -30 200 0
-580 -583 -644 -94 -118 200 0
-580 -584 -644 -94 -137 200 0
-581 -582 -644 -145 -30 200 0
-581 -583 -644 -145 -118 200 0
-581 -584 -644 -145 -137 200 0
-582 -585 -645 -30 -12 92 0
-582 -586 -645 -30 -28 92 0
-582 -587 -645 -30 -71 92 0
-583 -585 -645 -118 -12 92 0
-583 -586 -645 -118 -28 92 0
-583 -587 -645 -118 -71 92 0
-584 -585 -645 -137 -12 92 0
-584 -586 -645 -137 -28 92 0
-584 -587 -645 -137 -71 92 0
-582 -585 -646 -30 -12 121 0
-582 -586 -646 -30 -28 121 0
-582 -587 -646 -30 -71 121 0
-583 -585 -646 -118 -12 121 0
-583 -586 -646 -118 -28 121 0
-583 -587 -646 -118 -71 121 0
-584 -585 -646 -137 -12 121 0
-584 -586 -646 -137 -28 121 0
-584 -587 -646 -137 -71 121 0
-582 -585 -647 -30 -12 170 0
-582 -586 -647 -30 -28 170 0
-582 -587 -647 -30 -71 170 0
-583 -585 -647 -118 -12 170 0
-583 -586 -647 -118 -28 170 0
-583 -587 -647 -118 -71 170 0
-584 -585 -647 -137 -12 170 0
-584 -586 -647 -137 -28 170 0
-584 -587 -647 -137 -71 170 0
-585 -588 -648 -12 -4 47 0
-585 -589 -648 -12 -76 47 0
-585 -590 -648 -12 -158 47 0
-586 -588 -648 -28 -4 47 0
-586 -589 -648 -28 -76 47 0
-586 -590 -648 -28 -158 47 0
-587 -588 -648 -71 -4 47 0
-587 -589 -648 -71 -76 47 0
-587 -590 -648 -71 -158 47 0
-585 -588 -649 -12 -4 67 0
-585 -589 -649 -12 -76 67 0
-585 -590 -649 -12 -158 67 0
-586 -588 -649 -28 -4 67 0
-586 -589 -649 -28 -76 67 0
-586 -590 -649 -28 -158 67 0
-587 -588 -649 -71 -4 67 0
-587 -589 -649 -71 -76 67 0
-587 -590 -649 -71 -158 67 0
-585 -588 -650 -12 -4 139 0
-585 -589 -650 -12 -76 139 0
-585 -590 -650 -12 -158 139 0
-586 -588 -650 -28 -4 139 0
-586 -589 -650 -28 -76 139 0
-586 -590 -650 -28 -158 139 0
-587 -588 -650 -71 -4 139 0
-587 -589 -650 -71 -76 139 0
-587 -590 -650 -71 -158 139 0
-588 -591 -651 -4 51 0
-588 -592 -651 -4 -24 51 0
-588 -593 -651 -4 -172 51 0
-589 -591 -651 -76 -4 51 0
-589 -592 -651 -76 -24 51 0
-589 -593 -651 -76 -172 51 0
-590 -591 -651 -158 -4 51 0
-590 -592 -651 -158 -24 51 0
-590 -593 -651 -158 -172 51 0
-588 -591 -652 -4 54 0
-588 -592 -652 -4 -24 54 0
-588 -593 -652 -4 -172 54 0
-589 -591 -652 -76 -4 54 0
-589 -592 -652 -76 -24 54 0
-589 -593 -652 -76 -172 54 0
-590 -591 -652 -158 -4 54 0
-590 -592 -652 -158 -24 54 0
-590 -593 -652 -158 -172 54 0
-588 -591 -653 -4 79 0
-588 -592 -653 -4 -24 79 0
-588 -593 -653 -4 -172 79 0
-589 -591 -653 -76 -4 79 0
-589 -592 -653 -76 -24 79 0
-589 -593 -653 -76 -172 79 0
-590 -591 -653 -158 -4 79 0
-590 -592 -653 -158 -24 79 0
-590 -593 -653 -158 -172 79 0
-591 -594 -654 -4 -11 21 0
-591 -595 -654 -4 -30 21 0
-591 -596 -654 -4 -106 21 0
-592 -594 -654 -24 -11 21 0
-592 -595 -654 -24 -30 21 0
-592 -596 -654 -24 -106 21 0
-593 -594 -654 -172 -11 21 0
-593 -595 -654 -172 -30 21 0
-593 -596 -654 -172 -106 21 0
-591 -594 -655 -4 -11 64 0
-591 -595 -655 -4 -30 64 0
-591 -596 -655 -4 -106 64 0
-592 -594 -655 -24 -11 64 0
-592 -595 -655 -24 -30 64 0
-592 -596 -655 -24 -106 64 0
-593 -594 -655 -172 -11 64 0
-593 -595 -655 -172 -30 64 0
-593 -596 -655 -172 -106 64 0
-591 -594 -656 -4 -11 93 0
-591 -595 -656 -4 -30 93 0
-591 -596 -656 -4 -106 93 0
-592 -594 -656 -24 -11 93 0
-592 -595 -656 -24 -30 93 0
-592 -596 -656 -24 -106 93 0
-593 -594 -656 -172 -11 93 0
-593 -595 -656 -172 -30 93 0
-593 -596 -656 -172 -106 93 0
-594 -597 -657 -11 -49 23 0
-594 -598 -657 -11 -62 23 0
-594 -599 -657 -11 -151 23 0
-595 -597 -657 -30 -49 23 0
-595 -598 -657 -30 -62 23 0
-595 -599 -657 -30 -151 23 0
-596 -597 -657 -106 -49 23 0
-596 -598 -657 -106 -62 23 0
-596 -599 -657 -106 -151 23 0
-594 -597 -658 -11 -49 72 0
-594 -598 -658 -11 -62 72 0
-594 -599 -658 -11 -151 72 0
-595 -597 -658 -30 -49 72 0
-595 -598 -658 -30 -62 72 0
-595 -599 -658 -30 -151 72 0
-596 -597 -658 -106 -49 72 0
-596 -598 -658 -106 -62 72 0
-596 -599 -658 -106 -151 72 0
-594 -597 -659 -11 -49 193 0
-594 -598 -659 -11 -62 193 0
-594 -599 -659 -11 -151 193 0
-595 -597 -659 -30 -49 193 0
-595 -598 -659 -30 -62 193 0
-595 -599 -659 -30 -151 193 0
-596 -597 -659 -106 -49 193 0
-596 -598 -659 -106 -62 193 0
-596 -599 -659 -106 -151 193 0
-597 -600 -660 -49 -30 24 0
-597 -601 -660 -49 -42 24 0
-597 -602 -660 -49 -108 24 0
-598 -600 -660 -62 -30 24 0
-598 -601 -660 -62 -42 24 0
-598 -602 -660 -62 -108 24 0
-599 -600 -660 -151 -30 24 0
-599 -601 -660 -151 -42 24 0
-599 -602 -660 -151 -108 24 0
-597 -600 -661 -49 -30 115 0
-597 -601 -661 -49 -42 115 0
-597 -602 -661 -49 -108 115 0
-598 -600 -661 -62 -30 115 0
-598 -601 -661 -62 -42 115 0
-598 -602 -661 -62 -108 115 0
-599 -600 -661 -151 -30 115 0
-599 -601 -661 -151 -42 115 0
-599 -602 -661 -151 -108 115 0
-597 -600 -662 -49 -30 167 0
-597 -601 -662 -49 -42 167 0
-597 -602 -662 -49 -108 167 0
-598 -600 -662 -62 -30 167 0
-598 -601 -662 -62 -42 167 0
-598 -602 -662 -62 -108 167 0
-599 -600 -662 -151 -30 167 0
-599 -601 -662 -151 -42 167 0
-599 -602 -662 -151 -108 167 0
-600 -603 -663 -30 -43 87 0
-600 -604 -663 -30 -116 87 0
-600 -605 -663 -30 -175 87 0
-601 -603 -663 -42 -43 87 0
-601 -604 -663 -42 -116 87 0
-601 -605 -663 -42 -175 87 0
-602 -603 -663 -108 -43 87 0
-602 -604 -663 -108 -116 87 0
-602 -605 -663 -108 -175 87 0
-600 -603 -664 -30 -43 148 0
-600 -604 -664 -30 -116 148 0
-600 -605 -664 -30 -175 148 0
-601 -603 -664 -42 -43 148 0
-601 -604 -664 -42 -116 148 0
-601 -605 -664 -42 -175 148 0
-602 -603 -664 -108 -43 148 0
-602 -604 -664 -108 -116 148 0
-602 -605 -664 -108 -175 148 0
-600 -603 -665 -30 -43 165 0
-600 -604 -665 -30 -116 165 0
-600 -605 -665 -30 -175 165 0
-601 -603 -665 -42 -43 165 0
-601 -604 -665 -42 -116 165 0
-601 -605 -665 -42 -175 165 0
-602 -603 -665 -108 -43 165 0
-602 -604 -665 -108 -116 165 0
-602 -605 -665 -108 -175 165 0
-603 -606 -666 -43 -41 59 0
-603 -607 -666 -43 -62 59 0
-603 -608 -666 -43 -191 59 0
-604 -606 -666 -116 -41 59 0
-604 -607 -666 -116 -62 59 0
-604 -608 -666 -116 -191 59 0
-605 -606 -666 -175 -41 59 0
-605 -607 -666 -175 -62 59 0
-605 -608 -666 -175 -191 59 0
-603 -606 -667 -43 -41 79 0
-603 -607 -667 -43 -62 79 0
-603 -608 -667 -43 -191 79 0
-604 -606 -667 -116 -41 79 0
-604 -607 -667 -116 -62 79 0
-604 -608 -667 -116 -191 79 0
-605 -606 -667 -175 -41 79 0
-605 -607 -667 -175 -62 79 0
-605 -608 -667 -175 -191 79 0
-603 -606 -668 -43 -41 100 0
-603 -607 -668 -43 -62 100 0
-603 -608 -668 -43 -191 100 0
-604 -606 -668 -116 -41 100 0
-604 -607 -668 -116 -62 100 0
-604 -608 -668 -116 -191 100 0
-605 -606 -668 -175 -41 100 0
-605 -607 -668 -175 -62 100 0
-605 -608 -668 -175 -191 100 0
-606 -609 -669 -41 -27 11 0
-606 -610 -669 -41 -97 11 0
-606 -611 -669 -41 -112 11 0
-607 -609 -669 -62 -27 11 0
-607 -610 -669 -62 -97 11 0
-607 -611 -669 -62 -112 11 0
-608 -609 -669 -191 -27 11 0
-608 -610 -669 -191 -97 11 0
-608 -611 -669 -191 -112 11 0
-606 -609 -670 -41 -27 48 0
-606 -610 -670 -41 -97 48 0
-606 -611 -670 -41 -112 48 0
-607 -609 -670 -62 -27 48 0
-607 -610 -670 -62 -97 48 0
-607 -611 -670 -62 -112 48 0
-608 -609 -670 -191 -27 48 0
-608 -610 -670 -191 -97 48 0
-608 -611 -670 -191 -112 48 0
-606 -609 -671 -41 -27 84 0
-606 -610 -671 -41 -97 84 0
-606 -611 -671 -41 -112 84 0
-607 -609 -671 -62 -27 84 0
-607 -610 -671 -62 -97 84 0
-607 -611 -671 -62 -112 84 0
-608 -609 -671 -191 -27 84 0
-608 -610 -671 -191 -97 84 0
-608 -611 -671 -191 -112 84 0
-609 -612 -672 -27 -76 78 0
-609 -613 -672 -27 -139 78 0
-609 -614 -672 -27 -141 78 0
-610 -612 -672 -97 -76 78 0
-610 -613 -672 -97 -139 78 0
-610 -614 -672 -97 -141 78 0
-611 -612 -672 -112 -76 78 0
-611 -613 -672 -112 -139 78 0
-611 -614 -672 -112 -141 78 0
-609 -612 -673 -27 -76 82 0
-609 -613 -673 -27 -139 82 0
-609 -614 -673 -27 -141 82 0
-610 -612 -673 -97 -76 82 0
-610 -613 -673 -97 -139 82 0
-610 -614 -673 -97 -141 82 0
-611 -612 -673 -112 -76 82 0
-611 -613 -673 -112 -139 82 0
-611 -614 -673 -112 -141 82 0
-609 -612 -674 -27 -76 149 0
-609 -613 -674 -27 -139 149 0
-609 -614 -674 -27 -141 149 0
-610 -612 -674 -97 -76 149 0
-610 -613 -674 -97 -139 149 0
-610 -614 -674 -97 -141 149 0
-611 -612 -674 -112 -76 149 0
-611 -613 -674 -112 -139 149 0
-611 -614 -674 -112 -141 149 0
-612 -615 -675 -76 -65 26 0
-612 -616 -675 -76 -123 26 0
-612 -617 -675 -76 -183 26 0
-613 -615 -675 -139 -65 26 0
-613 -616 -675 -139 -123 26 0
-613 -617 -675 -139 -183 26 0
-614 -615 -675 -141 -65 26 0
-614 -616 -675 -141 -123 26 0
-614 -617 -675 -141 -183 26 0
-612 -615 -676 -76 -65 63 0
-612 -616 -676 -76 -123 63 0
-612 -617 -676 -76 -183 63 0
-613 -615 -676 -139 -65 63 0
-613 -616 -676 -139 -123 63 0
-613 -617 -676 -139 -183 63 0
-614 -615 -676 -141 -65 63 0
-614 -616 -676 -141 -123 63 0
-614 -617 -676 -141 -183 63 0
-612 -615 -677 -76 -65 86 0
-612 -616 -677 -76 -123 86 0
-612 -617 -677 -76 -183 86 0
-613 -615 -677 -139 -65 86 0
-613 -616 -677 -139 -123 86 0
-613 -617 -677 -139 -183 86 0
-614 -615 -677 -141 -65 86 0
-614 -616 -677 -141 -123 86 0
-614 -617 -677 -141 -183 86 0
-615 -618 -678 -65 -26 140 0
-615 -619 -678 -65 -54 140 0
-615 -620 -678 -65 -81 140 0
-616 -618 -678 -123 -26 140 0
-616 -619 -678 -123 -54 140 0
-616 -620 -678 -123 -81 140 0
-617 -618 -678 -183 -26 140 0
-617 -619 -678 -183 -54 140 0
-617 -620 -678 -183 -81 140 0
-615 -618 -679 -65 -26 149 0
-615 -619 -679 -65 -54 149 0
-615 -620 -679 -65 -81 149 0
-616 -618 -679 -123 -26 149 0
-616 -619 -679 -123 -54 149 0
-616 -620 -679 -123 -81 149 0
-617 -618 -679 -183 -26 149 0
-617 -619 -679 -183 -54 149 0
-617 -620 -679 -183 -81 149 0
-615 -618 -680 -65 -26 157 0
-615 -619 -680 -65 -54 157 0
-615 -620 -680 -65 -81 157 0
-616 -618 -680 -123 -26 157 0
-616 -619 -680 -123 -54 157 0
-616 -620 -680 -123 -81 157 0
-617 -618 -680 -183 -26 157 0
-617 -619 -680 -183 -54 157 0
-617 -620 -680 -183 -81 157 0
-618 -621 -681 -26 -11 24 0
-618 -622 -681 -26 -82 24 0
-618 -623 -681 -26 -167 24 0
-619 -621 -681 -54 -11 24 0
-619 -622 -681 -54 -82 24 0
-619 -623 -681 -54 -167 24 0
-620 -621 -681 -81 -11 24 0
-620 -622 -681 -81 -82 24 0
-620 -623 -681 -81 -167 24 0
-618 -621 -682 -26 -11 63 0
-618 -622 -682 -26 -82 63 0
-618 -623 -682 -26 -167 63 0
-619 -621 -682 -54 -11 63 0
-619 -622 -682 -54 -82 63 0
-619 -623 -682 -54 -167 63 0
-620 -621 -682 -81 -11 63 0
-620 -622 -682 -81 -82 63 0
-620 -623 -682 -81 -167 63 0
-618 -621 -683 -26 -11 153 0
-618 -622 -683 -26 -82 153 0
-618 -623 -683 -26 -167 153 0
-619 -621 -683 -54 -11 153 0
-619 -622 -683 -54 -82 153 0
-619 -623 -683 -54 -167 153 0
-620 -621 -683 -81 -11 153 0
-620 -622 -683 -81 -82 153 0
-620 -623 -683 -81 -167 153 0
-624 -627 -684 -3 -82 6 0
-624 -628 -684 -3 -153 6 0
-624 -629 -684 -3 -186 6 0
-625 -627 -684 -7 -82 6 0
-625 -628 -684 -7 -153 6 0
-625 -629 -684 -7 -186 6 0
-626 -627 -684 -76 -82 6 0
-626 -628 -684 -76 -153 6 0
-626 -629 -684 -76 -186 6 0
-624 -627 -685 -3 -82 57 0
-624 -628 -685 -3 -153 57 0
-624 -629 -685 -3 -186 57 0
-625 -627 -685 -7 -82 57 0
-625 -628 -685 -7 -153 57 0
-625 -629 -685 -7 -186 57 0
-626 -627 -685 -76 -82 57 0
-626 -628 -685 -76 -153 57 0
-626 -629 -685 -76 -186 57 0
-624 -627 -686 -3 -82 63 0
-624 -628 -686 -3 -153 63 0
-624 -629 -686 -3 -186 63 0
-625 -627 -686 -7 -82 63 0
-625 -628 -686 -7 -153 63 0
-625 -629 -686 -7 -186 63 0
-626 -627 -686 -76 -82 63 0
-626 -628 -686 -76 -153 63 0
-626 -629 -686 -76 -186 63 0
-627 -630 -687 -82 -81 19 0
-627 -631 -687 -82 -101 19 0
-627 -632 -687 -82 -116 19 0
-628 -630 -687 -153 -81 19 0
-628 -631 -687 -153 -101 19 0
-628 -632 -687 -153 -116 19 0
-629 -630 -687 -186 -81 19 0
-629 -631 -687 -186 -101 19 0
-629 -632 -687 -186 -116 19 0
-627 -630 -688 -82 -81 69 0
-627 -631 -688 -82 -101 69 0
-627 -632 -688 -82 -116 69 0
-628 -630 -688 -153 -81 69 0
-628 -631 -688 -153 -101 69 0
-628 -632 -688 -153 -116 69 0
-629 -630 -688 -186 -81 69 0
-629 -631 -688 -186 -101 69 0
-629 -632 -688 -186 -116 69 0
-627 -630 -689 -82 -81 103 0
-627 -631 -689 -82 -101 103 0
-627 -632 -689 -82 -116 103 0
-628 -630 -689 -153 -81 103 0
-628 -631 -689 -153 -101 103 0
-628 -632 -689 -153 -116 103 0
-629 -630 -689 -186 -81 103 0
-629 -631 -689 -186 -101 103 0
-629 -632 -689 -186 -116 103 0
-630 -633 -690 -81 -17 19 0
-630 -634 -690 -81 -82 19 0
-630 -635 -690 -81 -103 19 0
-631 -633 -690 -101 -17 19 0
-631 -634 -690 -101 -82 19 0
-631 -635 -690 -101 -103 19 0
-632 -633 -690 -116 -17 19 0
-632 -634 -690 -116 -82 19 0
-632 -635 -690 -116 -103 19 0
-630 -633 -691 -81 -17 142 0
-630 -634 -691 -81 -82 142 0
-630 -635 -691 -81 -103 142 0
-631 -633 -691 -101 -17 142 0
-631 -634 -691 -101 -82 142 0
-631 -635 -691 -101 -103 142 0
-632 -633 -691 -116 -17 142 0
-632 -634 -691 -116 -82 142 0
-632 -635 -691 -116 -103 142 0
-630 -633 -692 -81 -17 187 0
-630 -634 -692 -81 -82 187 0
-630 -635 -692 -81 -103 187 0
-631 -633 -692 -101 -17 187 0
-631 -634 -692 -101 -82 187 0
-631 -635 -692 -101 -103 187 0
-632 -633 -692 -116 -17 187 0
-632 -634 -692 -116 -82 187 0
-632 -635 -692 -116 -103 187 0
-633 -636 -693 -17 -29 6 0
-633 -637 -693 -17 -117 6 0
-633 -638 -693 -17 -154 6 0
-634 -636 -693 -82 -29 6 0
-634 -637 -693 -82 -117 6 0
-634 -638 -693 -82 -154 6 0
-635 -636 -693 -103 -29 6 0
-635 -637 -693 -103 -117 6 0
-635 -638 -693 -103 -154 6 0
-633 -636 -694 -17 -29 20 0
-633 -637 -694 -17 -117 20 0
-633 -638 -694 -17 -154 20 0
-634 -636 -694 -82 -29 20 0
-634 -637 -694 -82 -117 20 0
-634 -638 -694 -82 -154 20 0
-635 -636 -694 -103 -29 20 0
-635 -637 -694 -103 -117 20 0
-635 -638 -694 -103 -154 20 0
-633 -636 -695 -17 -29 163 0
-633 -637 -695 -17 -117 163 0
-633 -638 -695 -17 -154 163 0
-634 -636 -695 -82 -29 163 0
-634 -637 -695 -82 -117 163 0
-634 -638 -695 -82 -154 163 0
-635 -636 -695 -103 -29 163 0
-635 -637 -695 -103 -117 163 0
-635 -638 -695 -103 -154 163 0
-636 -639 -696 -29 -56 3 0
-636 -640 -696 -29 -65 3 0
-636 -641 -696 -29 -159 3 0
-637 -639 -696 -117 -56 3 0
-637 -640 -696 -117 -65 3 0
-637 -641 -696 -117 -159 3 0
-638 -639 -696 -154 -56 3 0
-638 -640 -696 -154 -65 3 0
-638 -641 -696 -154 -159 3 0
-636 -639 -697 -29 -56 75 0
-636 -640 -697 -29 -65 75 0
-636 -641 -697 -29 -159 75 0
-637 -639 -697 -117 -56 75 0
-637 -640 -697 -117 -65 75 0
-637 -641 -697 -117 -159 75 0
-638 -639 -697 -154 -56 75 0
-638 -640 -697 -154 -65 75 0
-638 -641 -697 -154 -159 75 0
-636 -639 -698 -29 -56 193 0
-636 -640 -698 -29 -65 193 0
-636 -641 -698 -29 -159 193 0
-637 -639 -698 -117 -56 193 0
-637 -640 -698 -117 -65 193 0
-637 -641 -698 -117 -159 193 0
-638 -639 -698 -154 -56 193 0
-638 -640 -698 -154 -65 193 0
-638 -641 -698 -154 -159 193 0
-639 -642 -699 -56 -139 92 0
-639 -643 -699 -56 -177 92 0
-639 -644 -699 -56 -200 92 0
-640 -642 -699 -65 -139 92 0
-640 -643 -699 -65 -177 92 0
-640 -644 -699 -65 -200 92 0
-641 -642 -699 -159 -139 92 0
-641 -643 -699 -159 -177 92 0
-641 -644 -699 -159 -200 92 0
-639 -642 -700 -56 -139 121 0
-639 -643 -700 -56 -177 121 0
-639 -644 -700 -56 -200 121 0
-640 -642 -700 -65 -139 121 0
-640 -643 -700 -65 -177 121 0
-640 -644 -700 -65 -200 121 0
-641 -642 -700 -159 -139 121 0
-641 -643 -700 -159 -177 121 0
-641 -644 -700 -159 -200 121 0
-639 -642 -701 -56 -139 127 0
-639 -643 -701 -56 -177 127 0
-639 -644 -701 -56 -200 127 0
-640 -642 -701 -65 -139 127 0
-640 -643 -701 -65 -177 127 0
-640 -644 -701 -65 -200 127 0
-641 -642 -701 -159 -139 127 0
-641 -643 -701 -159 -177 127 0
-641 -644 -701 -159 -200 127 0
-642 -645 -702 -139 -92 26 0
-642 -646 -702 -139 -121 26 0
-642 -647 -702 -139 -170 26 0
-643 -645 -702 -177 -92 26 0
-643 -646 -702 -177 -121 26 0
-643 -647 -702 -177 -170 26 0
-644 -645 -702 -200 -92 26 0
-644 -646 -702 -200 -121 26 0
-644 -647 -702 -200 -170 26 0
-642 -645 -703 -139 -92 40 0
-642 -646 -703 -139 -121 40 0
-642 -647 -703 -139 -170 40 0
-643 -645 -703 -177 -92 40 0
-643 -646 -703 -177 -121 40 0
-643 -647 -703 -177 -170 40 0
-644 -645 -703 -200 -92 40 0
-644 -646 -703 -200 -121 40 0
-644 -647 -703 -200 -170 40 0
-642 -645 -704 -139 -92 129 0
-642 -646 -704 -139 -121 129 0
-642 -647 -704 -139 -170 129 0
-643 -645 -704 -177 -92 129 0
-643 -646 -704 -177 -121 129 0
-643 -647 -704 -177 -170 129 0
-644 -645 -704 -200 -92 129 0
-644 -646 -704 -200 -121 129 0
-644 -647 -704 -200 -170 129 0
-645 -648 -705 -92 -47 20 0
-645 -649 -705 -92 -67 20 0
-645 -650 -705 -92 -139 20 0
-646 -648 -705 -121 -47 20 0
-646 -649 -705 -121 -67 20 0
-646 -650 -705 -121 -139 20 0
-647 -648 -705 -170 -47 20 0
-647 -649 -705 -170 -67 20 0
-647 -650 -705 -170 -139 20 0
-645 -648 -706 -92 -47 84 0
-645 -649 -706 -92 -67 84 0
-645 -650 -706 -92 -139 84 0
-646 -648 -706 -121 -47 84 0
-646 -649 -706 -121 -67 84 0
-646 -650 -706 -121 -139 84 0
-647 -648 -706 -170 -47 84 0
-647 -649 -706 -170 -67 84 0
-647 -650 -706 -170 -139 84 0
-645 -648 -707 -92 -47 200 0
-645 -649 -707 -92 -67 200 0
-645 -650 -707 -92 -139 200 0
-646 -648 -707 -121 -47 200 0
-646 -649 -707 -121 -67 200 0
-646 -650 -707 -121 -139 200 0
-647 -648 -707 -170 -47 200 0
-647 -649 -707 -170 -67 200 0
-647 -650 -707 -170 -139 200 0
-648 -651 -708 -47 -51 45 0
-648 -652 -708 -47 -54 45 0
-648 -653 -708 -47 -79 45 0
-649 -651 -708 -67 -51 45 0
-649 -652 -708 -67 -54 45 0
-649 -653 -708 -67 -79 45 0
-650 -651 -708 -139 -51 45 0
-650 -652 -708 -139 -54 45 0
-650 -653 -708 -139 -79 45 0
-648 -651 -709 -47 -51 131 0
-648 -652 -709 -47 -54 131 0
-648 -653 -709 -47 -79 131 0
-649 -651 -709 -67 -51 131 0
-649 -652 -709 -67 -54 131 0
-649 -653 -709 -67 -79 131 0
-650 -651 -709 -139 -51 131 0
-650 -652 -709 -139 -54 131 0
-650 -653 -709 -139 -79 131 0
-648 -651 -710 -47 -51 171 0
-648 -652 -710 -47 -54 171 0
-648 -653 -710 -47 -79 171 0
-649 -651 -710 -67 -51 171 0
-649 -652 -710 -67 -54 171 0
-649 -653 -710 -67 -79 171 0
-650 -651 -710 -139 -51 171 0
-650 -652 -710 -139 -54 171 0
-650 -653 -710 -139 -79 171 0
-651 -654 -711 -51 -21 39 0
-651 -655 -711 -51 -64 39 0
-651 -656 -711 -51 -93 39 0
-652 -654 -711 -54 -21 39 0
-652 -655 -711 -54 -64 39 0
-652 -656 -711 -54 -93 39 0
-653 -654 -711 -79 -21 39 0
-653 -655 -711 -79 -64 39 0
-653 -656 -711 -79 -93 39 0
-651 -654 -712 -51 -21 46 0
-651 -655 -712 -51 -64 46 0
-651 -656 -712 -51 -93 46 0
-652 -654 -712 -54 -21 46 0
-652 -655 -712 -54 -64 46 0
-652 -656 -712 -54 -93 46 0
-653 -654 -712 -79 -21 46 0
-653 -655 -712 -79 -64 46 0
-653 -656 -712 -79 -93 46 0
-651 -654 -713 -51 -21 199 0
-651 -655 -713 -51 -64 199 0
-651 -656 -713 -51 -93 199 0
-652 -654 -713 -54 -21 199 0
-652 -655 -713 -54 -64 199 0
-652 -656 -713 -54 -93 199 0
-653 -654 -713 -79 -21 199 0
-653 -655 -713 -79 -64 199 0
-653 -656 -713 -79 -93 199 0
-654 -657 -714 -21 -23 37 0
-654 -658 -714 -21 -72 37 0
-654 -659 -714 -21 -193 37 0
-655 -657 -714 -64 -23 37 0
-655 -658 -714 -64 -72 37 0
-655 -659 -714 -64 -193 37 0
-656 -657 -714 -93 -23 37 0
-656 -658 -714 -93 -72 37 0
-656 -659 -714 -93 -193 37 0
-654 -657 -715 -21 -23 79 0
-654 -658 -715 -21 -72 79 0
-654 -659 -715 -21 -193 79 0
-655 -657 -715 -64 -23 79 0
-655 -658 -715 -64 -72 79 0
-655 -659 -715 -64 -193 79 0
-656 -657 -715 -93 -23 79 0
-656 -658 -715 -93 -72 79 0
-656 -659 -715 -93 -193 79 0
-654 -657 -716 -21 -23 82 0
-654 -658 -716 -21 -72 82 0
-654 -659 -716 -21 -193 82 0
-655 -657 -716 -64 -23 82 0
-655 -658 -716 -64 -72 82 0
-655 -659 -716 -64 -193 82 0
-656 -657 -716 -93 -23 82 0
-656 -658 -716 -93 -72 82 0
-656 -659 -716 -93 -193 82 0
-657 -660 -717 -23 -24 28 0
-657 -661 -717 -23 -115 28 0
-657 -662 -717 -23 -167 28 0
-658 -660 -717 -72 -24 28 0
-658 -661 -717 -72 -115 28 0
-658 -662 -717 -72 -167 28 0
-659 -660 -717 -193 -24 28 0
-659 -661 -717 -193 -115 28 0
-659 -662 -717 -193 -167 28 0
-657 -660 -718 -23 -24 132 0
-657 -661 -718 -23 -115 132 0
-657 -662 -718 -23 -167 132 0
-658 -660 -718 -72 -24 132 0
-658 -661 -718 -72 -115 132 0
-658 -662 -718 -72 -167 132 0
-659 -660 -718 -193 -24 132 0
-659 -661 -718 -193 -115 132 0
-659 -662 -718 -193 -167 132 0
-657 -660 -719 -23 -24 182 0
-657 -661 -719 -23 -115 182 0
-657 -662 -719 -23 -167 182 0
-658 -660 -719 -72 -24 182 0
-658 -661 -719 -72 -115 182 0
-658 -662 -719 -72 -167 182 0
-659 -660 -719 -193 -24 182 0
-659 -661 -719 -193 -115 182 0
-659 -662 -719 -193 -167 182 0
-660 -663 -720 -24 -87 33 0
-660 -664 -720 -24 -148 33 0
-660 -665 -720 -24 -165 33 0
-661 -663 -720 -115 -87 33 0
-661 -664 -720 -115 -148 33 0
-661 -665 -720 -115 -165 33 0
-662 -663 -720 -167 -87 33 0
-662 -664 -720 -167 -148 33 0
-662 -665 -720 -167 -165 33 0
-660 -663 -721 -24 -87 76 0
-660 -664 -721 -24 -148 76 0
-660 -665 -721 -24 -165 76 0
-661 -663 -721 -115 -87 76 0
-661 -664 -721 -115 -148 76 0
-661 -665 -721 -115 -165 76 0
-662 -663 -721 -167 -87 76 0
-662 -664 -721 -167 -148 76 0
-662 -665 -721 -167 -165 76 0
-660 -663 -722 -24 -87 155 0
-660 -664 -722 -24 -148 155 0
-660 -665 -722 -24 -165 155 0
-661 -663 -722 -115 -87 155 0
-661 -664 -722 -115 -148 155 0
-661 -665 -722 -115 -165 155 0
-662 -663 -722 -167 -87 155 0
-662 -664 -722 -167 -148 155 0
-662 -665 -722 -167 -165 155 0
-663 -666 -723 -87 -59 37 0
-663 -667 -723 -87 -79 37 0
-663 -668 -723 -87 -100 37 0
-664 -666 -723 -148 -59 37 0
-664 -667 -723 -148 -79 37 0
-664 -668 -723 -148 -100 37 0
-665 -666 -723 -165 -59 37 0
-665 -667 -723 -165 -79 37 0
-665 -668 -723 -165 -100 37 0
-663 -666 -724 -87 -59 53 0
-663 -667 -724 -87 -79 53 0
-663 -668 -724 -87 -100 53 0
-664 -666 -724 -148 -59 53 0
-664 -667 -724 -148 -79 53 0
-664 -668 -724 -148 -100 53 0
-665 -666 -724 -165 -59 53 0
-665 -667 -724 -165 -79 53 0
-665 -668 -724 -165 -100 53 0
-663 -666 -725 -87 -59 140 0
-663 -667 -725 -87 -79 140 0
-663 -668 -725 -87 -100 140 0
-664 -666 -725 -148 -59 140 0
-664 -667 -725 -148 -79 140 0
-664 -668 -725 -148 -100 140 0
-665 -666 -725 -165 -59 140 0
-665 -667 -725 -165 -79 140 0
-665 -668 -725 -165 -100 140 0
-666 -669 -726 -59 -11 9 0
-666 -670 -726 -59 -48 9 0
-666 -671 -726 -59 -84 9 0
-667 -669 -726 -79 -11 9 0
-667 -670 -726 -79 -48 9 0
-667 -671 -726 -79 -84 9 0
-668 -669 -726 -100 -11 9 0
-668 -670 -726 -100 -48 9 0
-668 -671 -726 -100 -84 9 0
-666 -669 -727 -59 -11 185 0
-666 -670 -727 -59 -48 185 0
-666 -671 -727 -59 -84 185 0
-667 -669 -727 -79 -11 185 0
-667 -670 -727 -79 -48 185 0
-667 -671 -727 -79 -84 185 0
-668 -669 -727 -100 -11 185 0
-668 -670 -727 -100 -48 185 0
-668 -671 -727 -100 -84 185 0
-666 -669 -728 -59 -11 200 0
-666 -670 -728 -59 -48 200 0
-666 -671 -728 -59 -84 200 0
-667 -669 -728 -79 -11 200 0
-667 -670 -728 -79 -48 200 0
-667 -671 -728 -79 -84 200 0
-668 -669 -728 -100 -11 200 0
-668 -670 -728 -100 -48 200 0
-668 -671 -728 -100 -84 200 0
-669 -672 -729 -11 -78 81 0
-669 -673 -729 -11 -82 81 0
-669 -674 -729 -11 -149 81 0
-670 -672 -729 -48 -78 81 0
-670 -673 -729 -48 -82 81 0
-670 -674 -729 -48 -149 81 0
-671 -672 -729 -84 -78 81 0
-671 -673 -729 -84 -82 81 0
-671 -674 -729 -84 -149 81 0
-669 -672 -730 -11 -78 160 0
-669 -673 -730 -11 -82 160 0
-669 -674 -730 -11 -149 160 0
-670 -672 -730 -48 -78 160 0
-670 -673 -730 -48 -82 160 0
-670 -674 -730 -48 -149 160 0
-671 -672 -730 -84 -78 160 0
-671 -673 -730 -84 -82 160 0
-671 -674 -730 -84 -149 160 0
-669 -672 -731 -11 -78 173 0
-669 -673 -731 -11 -82 173 0
-669 -674 -731 -11 -149 173 0
-670 -672 -731 -48 -78 173 0
-670 -673 -731 -48 -82 173 0
-670 -674 -731 -48 -149 173 0
-671 -672 -731 -84 -78 173 0
-671 -673 -731 -84 -82 173 0
-671 -674 -731 -84 -149 173 0
-672 -675 -732 -78 -26 142 0
-672 -676 -732 -78 -63 142 0
-672 -677 -732 -78 -86 142 0
-673 -675 -732 -82 -26 142 0
-673 -676 -732 -82 -63 142 0
-673 -677 -732 -82 -86 142 0
-674 -675 -732 -149 -26 142 0
-674 -676 -732 -149 -63 142 0
-674 -677 -732 -149 -86 142 0
-672 -675 -733 -78 -26 177 0
-672 -676 -733 -78 -63 177 0
-672 -677 -733 -78 -86 177 0
-673 -675 -733 -82 -26 177 0
-673 -676 -733 -82 -63 177 0
-673 -677 -733 -82 -86 177 0
-674 -675 -733 -149 -26 177 0
-674 -676 -733 -149 -63 177 0
-674 -677 -733 -149 -86 177 0
-672 -675 -734 -78 -26 192 0
-672 -676 -734 -78 -63 192 0
-672 -677 -734 -78 -86 192 0
-673 -675 -734 -82 -26 192 0
-673 -676 -734 -82 -63 192 0
-673 -677 -734 -82 -86 192 0
-674 -675 -734 -149 -26 192 0
-674 -676 -734 -149 -63 192 0
-674 -677 -734 -149 -86 192 0
-675 -678 -735 -26 -140 46 0
-675 -679 -735 -26 -149 46 0
-675 -680 -735 -26 -157 46 0
-676 -678 -735 -63 -140 46 0
-676 -679 -735 -63 -149 46 0
-676 -680 -735 -63 -157 46 0
-677 -678 -735 -86 -140 46 0
-677 -679 -735 -86 -149 46 0
-677 -680 -735 -86 -157 46 0
-675 -678 -736 -26 -140 53 0
-675 -679 -736 -26 -149 53 0
-675 -680 -736 -26 -157 53 0
-676 -678 -736 -63 -140 53 0
-676 -679 -736 -63 -149 53 0
-676 -680 -736 -63 -157 53 0
-677 -678 -736 -86 -140 53 0
-677 -679 -736 -86 -149 53 0
-677 -680 -736 -86 -157 53 0
-675 -678 -737 -26 -140 77 0
-675 -679 -737 -26 -149 77 0
-675 -680 -737 -26 -157 77 0
-676 -678 -737 -63 -140 77 0
-676 -679 -737 -63 -149 77 0
-676 -680 -737 -63 -157 77 0
-677 -678 -737 -86 -140 77 0
-677 -679 -737 -86 -149 77 0
-677 -680 -737 -86 -157 77 0
-678 -681 -738 -140 -24 41 0
-678 -682 -738 -140 -63 41 0
-678 -683 -738 -140 -153 41 0
-679 -681 -738 -149 -24 41 0
-679 -682 -738 -149 -63 41 0
-679 -683 -738 -149 -153 41 0
-680 -681 -738 -157 -24 41 0
-680 -682 -738 -157 -63 41 0
-680 -683 -738 -157 -153 41 0
-678 -681 -739 -140 -24 111 0
-678 -682 -739 -140 -63 111 0
-678 -683 -739 -140 -153 111 0
-679 -681 -739 -149 -24 111 0
-679 -682 -739 -149 -63 111 0
-679 -683 -739 -149 -153 111 0
-680 -681 -739 -157 -24 111 0
-680 -682 -739 -157 -63 111 0
-680 -683 -739 -157 -153 111 0
-678 -681 -740 -140 -24 138 0
-678 -682 -740 -140 -63 138 0
-678 -683 -740 -140 -153 138 0
-679 -681 -740 -149 -24 138 0
-679 -682 -740 -149 -63 138 0
-679 -683 -740 -149 -153 138 0
-680 -681 -740 -157 -24 138 0
-680 -682 -740 -157 -63 138 0
-680 -683 -740 -157 -153 138 0
-684 -687 -741 -6 -19 13 0
-684 -688 -741 -6 -69 13 0
-684 -689 -741 -6 -103 13 0
-685 -687 -741 -57 -19 13 0
-685 -688 -741 -57 -69 13 0
-685 -689 -741 -57 -103 13 0
-686 -687 -741 -63 -19 13 0
-686 -688 -741 -63 -69 13 0
-686 -689 -741 -63 -103 13 0
-684 -687 -742 -6 -19 171 0
-684 -688 -742 -6 -69 171 0
-684 -689 -742 -6 -103 171 0
-685 -687 -742 -57 -19 171 0
-685 -688 -742 -57 -69 171 0
-685 -689 -742 -57 -103 171 0
-686 -687 -742 -63 -19 171 0
-686 -688 -742 -63 -69 171 0
-686 -689 -742 -63 -103 171 0
-684 -687 -743 -6 -19 183 0
-684 -688 -743 -6 -69 183 0
-684 -689 -743 -6 -103 183 0
-685 -687 -743 -57 -19 183 0
-685 -688 -743 -57 -69 183 0
-685 -689 -743 -57 -103 183 0
-686 -687 -743 -63 -19 183 0
-686 -688 -743 -63 -69 183 0
-686 -689 -743 -63 -103 183 0
-687 -690 -744 -19 64 0
-687 -691 -744 -19 -142 64 0
-687 -692 -744 -19 -187 64 0
-688 -690 -744 -69 -19 64 0
-688 -691 -744 -69 -142 64 0
-688 -692 -744 -69 -187 64 0
-689 -690 -744 -103 -19 64 0
-689 -691 -744 -103 -142 64 0
-689 -692 -744 -103 -187 64 0
-687 -690 -745 -19 65 0
-687 -691 -745 -19 -142 65 0
-687 -692 -745 -19 -187 65 0
-688 -690 -745 -69 -19 65 0
-688 -691 -745 -69 -142 65 0
-688 -692 -745 -69 -187 65 0
-689 -690 -745 -103 -19 65 0
-689 -691 -745 -103 -142 65 0
-689 -692 -745 -103 -187 65 0
-687 -690 -746 -19 200 0
-687 -691 -746 -19 -142 200 0
-687 -692 -746 -19 -187 200 0
-688 -690 -746 -69 -19 200 0
-688 -691 -746 -69 -142 200 0
-688 -692 -746 -69 -187 200 0
-689 -690 -746 -103 -19 200 0
-689 -691 -746 -103 -142 200 0
-689 -692 -746 -103 -187 200 0
-690 -693 -747 -19 -6 17 0
-690 -694 -747 -19 -20 17 0
-690 -695 -747 -19 -163 17 0
-691 -693 -747 -142 -6 17 0
-691 -694 -747 -142 -20 17 0
-691 -695 -747 -142 -163 17 0
-692 -693 -747 -187 -6 17 0
-692 -694 -747 -187 -20 17 0
-692 -695 -747 -187 -163 17 0
-690 -693 -748 -19 -6 115 0
-690 -694 -748 -19 -20 115 0
-690 -695 -748 -19 -163 115 0
-691 -693 -748 -142 -6 115 0
-691 -694 -748 -142 -20 115 0
-691 -695 -748 -142 -163 115 0
-692 -693 -748 -187 -6 115 0
-692 -694 -748 -187 -20 115 0
-692 -695 -748 -187 -163 115 0
-690 -693 -749 -19 -6 175 0
-690 -694 -749 -19 -20 175 0
-690 -695 -749 -19 -163 175 0
-691 -693 -749 -142 -6 175 0
-691 -694 -749 -142 -20 175 0
-691 -695 -749 -142 -163 175 0
-692 -693 -749 -187 -6 175 0
-692 -694 -749 -187 -20 175 0
-692 -695 -749 -187 -163 175 0
-693 -696 -750 -6 -3 65 0
-693 -697 -750 -6 -75 65 0
-693 -698 -750 -6 -193 65 0
-694 -696 -750 -20 -3 65 0
-694 -697 -750 -20 -75 65 0
-694 -698 -750 -20 -193 65 0
-695 -696 -750 -163 -3 65 0
-695 -697 -750 -163 -75 65 0
-695 -698 -750 -163 -193 65 0
-693 -696 -751 -6 -3 111 0
-693 -697 -751 -6 -75 111 0
-693 -698 -751 -6 -193 111 0
-694 -696 -751 -20 -3 111 0
-694 -697 -751 -20 -75 111 0
-694 -698 -751 -20 -193 111 0
-695 -696 -751 -163 -3 111 0
-695 -697 -751 -163 -75 111 0
-695 -698 -751 -163 -193 111 0
-693 -696 -752 -6 -3 141 0
-693 -697 -752 -6 -75 141 0
-693 -698 -752 -6 -193 141 0
-694 -696 -752 -20 -3 141 0
-694 -697 -752 -20 -75 141 0
-694 -698 -752 -20 -193 141 0
-695 -696 -752 -163 -3 141 0
-695 -697 -752 -163 -75 141 0
-695 -698 -752 -163 -193 141 0
-696 -699 -753 -3 -92 113 0
-696 -700 -753 -3 -121 113 0
-696 -701 -753 -3 -127 113 0
-697 -699 -753 -75 -92 113 0
-697 -700 -753 -75 -121 113 0
-697 -701 -753 -75 -127 113 0
-698 -699 -753 -193 -92 113 0
-698 -700 -753 -193 -121 113 0
-698 -701 -753 -193 -127 113 0
-696 -699 -754 -3 -92 138 0
-696 -700 -754 -3 -121 138 0
-696 -701 -754 -3 -127 138 0
-697 -699 -754 -75 -92 138 0
-697 -700 -754 -75 -121 138 0
-697 -701 -754 -75 -127 138 0
-698 -699 -754 -193 -92 138 0
-698 -700 -754 -193 -121 138 0
-698 -701 -754 -193 -127 138 0
-696 -699 -755 -3 -92 139 0
-696 -700 -755 -3 -121 139 0
-696 -701 -755 -3 -127 139 0
-697 -699 -755 -75 -92 139 0
-697 -700 -755 -75 -121 139 0
-697 -701 -755 -75 -127 139 0
-698 -699 -755 -193 -92 139 0
-698 -700 -755 -193 -121 139 0
-698 -701 -755 -193 -127 139 0
-699 -702 -756 -92 -26 3 0
-699 -703 -756 -92 -40 3 0
-699 -704 -756 -92 -129 3 0
-700 -702 -756 -121 -26 3 0
-700 -703 -756 -121 -40 3 0
-700 -704 -756 -121 -129 3 0
-701 -702 -756 -127 -26 3 0
-701 -703 -756 -127 -40 3 0
-701 -704 -756 -127 -129 3 0
-699 -702 -757 -92 -26 102 0
-699 -703 -757 -92 -40 102 0
-699 -704 -757 -92 -129 102 0
-700 -702 -757 -121 -26 102 0
-700 -703 -757 -121 -40 102 0
-700 -704 -757 -121 -129 102 0
-701 -702 -757 -127 -26 102 0
-701 -703 -757 -127 -40 102 0
-701 -704 -757 -127 -129 102 0
-699 -702 -758 -92 -26 117 0
-699 -703 -758 -92 -40 117 0
-699 -704 -758 -92 -129 117 0
-700 -702 -758 -121 -26 117 0
-700 -703 -758 -121 -40 117 0
-700 -704 -758 -121 -129 117 0
-701 -702 -758 -127 -26 117 0
-701 -703 -758 -127 -40 117 0
-701 -704 -758 -127 -129 117 0
-702 -705 -759 -26 -20 44 0
-702 -706 -759 -26 -84 44 0
-702 -707 -759 -26 -200 44 0
-703 -705 -759 -40 -20 44 0
-703 -706 -759 -40 -84 44 0
-703 -707 -759 -40 -200 44 0
-704 -705 -759 -129 -20 44 0
-704 -706 -759 -129 -84 44 0
-704 -707 -759 -129 -200 44 0
-702 -705 -760 -26 -20 67 0
-702 -706 -760 -26 -84 67 0
-702 -707 -760 -26 -200 67 0
-703 -705 -760 -40 -20 67 0
-703 -706 -760 -40 -84 67 0
-703 -707 -760 -40 -200 67 0
-704 -705 -760 -129 -20 67 0
-704 -706 -760 -129 -84 67 0
-704 -707 -760 -129 -200 67 0
-702 -705 -761 -26 -20 87 0
-702 -706 -761 -26 -84 87 0
-702 -707 -761 -26 -200 87 0
-703 -705 -761 -40 -20 87 0
-703 -706 -761 -40 -84 87 0
-703 -707 -761 -40 -200 87 0
-704 -705 -761 -129 -20 87 0
-704 -706 -761 -129 -84 87 0
-704 -707 -761 -129 -200 87 0
-705 -708 -762 -20 -45 7 0
-705 -709 -762 -20 -131 7 0
-705 -710 -762 -20 -171 7 0
-706 -708 -762 -84 -45 7 0
-706 -709 -762 -84 -131 7 0
-706 -710 -762 -84 -171 7 0
-707 -708 -762 -200 -45 7 0
-707 -709 -762 -200 -131 7 0
-707 -710 -762 -200 -171 7 0
-705 -708 -763 -20 -45 125 0
-705 -709 -763 -20 -131 125 0
-705 -710 -763 -20 -171 125 0
-706 -708 -763 -84 -45 125 0
-706 -709 -763 -84 -131 125 0
-706 -710 -763 -84 -171 125 0
-707 -708 -763 -200 -45 125 0
-707 -709 -763 -200 -131 125 0
-707 -710 -763 -200 -171 125 0
-705 -708 -764 -20 -45 166 0
-705 -709 -764 -20 -131 166 0
-705 -710 -764 -20 -171 166 0
-706 -708 -764 -84 -45 166 0
-706 -709 -764 -84 -131 166 0
-706 -710 -764 -84 -171 166 0
-707 -708 -764 -200 -45 166 0
-707 -709 -764 -200 -131 166 0
-707 -710 -764 -200 -171 166 0
-708 -711 -765 -45 -39 5 0
-708 -712 -765 -45 -46 5 0
-708 -713 -765 -45 -199 5 0
-709 -711 -765 -131 -39 5 0
-709 -712 -765 -131 -46 5 0
-709 -713 -765 -131 -199 5 0
-710 -711 -765 -171 -39 5 0
-710 -712 -765 -171 -46 5 0
-710 -713 -765 -171 -199 5 0
-708 -711 -766 -45 -39 107 0
-708 -712 -766 -45 -46 107 0
-708 -713 -766 -45 -199 107 0
-709 -711 -766 -131 -39 107 0
-709 -712 -766 -131 -46 107 0
-709 -713 -766 -131 -199 107 0
-710 -711 -766 -171 -39 107 0
-710 -712 -766 -171 -46 107 0
-710 -713 -766 -171 -199 107 0
-708 -711 -767 -45 -39 147 0
-708 -712 -767 -45 -46 147 0
-708 -713 -767 -45 -199 147 0
-709 -711 -767 -131 -39 147 0
-709 -712 -767 -131 -46 147 0
-709 -713 -767 -131 -199 147 0
-710 -711 -767 -171 -39 147 0
-710 -712 -767 -171 -46 147 0
-710 -713 -767 -171 -199 147 0
-711 -714 -768 -39 -37 16 0
-711 -715 -768 -39 -79 16 0
-711 -716 -768 -39 -82 16 0
-712 -714 -768 -46 -37 16 0
-712 -715 -768 -46 -79 16 0
-712 -716 -768 -46 -82 16 0
-713 -714 -768 -199 -37 16 0
-713 -715 -768 -199 -79 16 0
-713 -716 -768 -199 -82 16 0
-711 -714 -769 -39 -37 91 0
-711 -715 -769 -39 -79 91 0
-711 -716 -769 -39 -82 91 0
-712 -714 -769 -46 -37 91 0
-712 -715 -769 -46 -79 91 0
-712 -716 -769 -46 -82 91 0
-713 -714 -769 -199 -37 91 0
-713 -715 -769 -199 -79 91 0
-713 -716 -769 -199 -82 91 0
-711 -714 -770 -39 -37 178 0
-711 -715 -770 -39 -79 178 0
-711 -716 -770 -39 -82 178 0
-712 -714 -770 -46 -37 178 0
-712 -715 -770 -46 -79 178 0
-712 -716 -770 -46 -82 178 0
-713 -714 -770 -199 -37 178 0
-713 -715 -770 -199 -79 178 0
-713 -716 -770 -199 -82 178 0
-714 -717 -771 -37 -28 36 0
-714 -718 -771 -37 -132 36 0
-714 -719 -771 -37 -182 36 0
-715 -717 -771 -79 -28 36 0
-715 -718 -771 -79 -132 36 0
-715 -719 -771 -79 -182 36 0
-716 -717 -771 -82 -28 36 0
-716 -718 -771 -82 -132 36 0
-716 -719 -771 -82 -182 36 0
-714 -717 -772 -37 -28 149 0
-714 -718 -772 -37 -132 149 0
-714 -719 -772 -37 -182 149 0
-715 -717 -772 -79 -28 149 0
-715 -718 -772 -79 -132 149 0
-715 -719 -772 -79 -182 149 0
-716 -717 -772 -82 -28 149 0
-716 -718 -772 -82 -132 149 0
-716 -719 -772 -82 -182 149 0
-714 -717 -773 -37 -28 152 0
-714 -718 -773 -37 -132 152 0
-714 -719 -773 -37 -182 152 0
-715 -717 -773 -79 -28 152 0
-715 -718 -773 -79 -132 152 0
-715 -719 -773 -79 -182 152 0
-716 -717 -773 -82 -28 152 0
-716 -718 -773 -82 -132 152 0
-716 -719 -773 -82 -182 152 0
-717 -721 -774 -28 -76 33 0
-717 -722 -774 -28 -155 33 0
-718 -721 -774 -132 -76 33 0
-718 -722 -774 -132 -155 33 0
-719 -721 -774 -182 -76 33 0
-719 -722 -774 -182 -155 33 0
-717 -720 -775 -28 -33 36 0
-717 -721 -775 -28 -76 36 0
-717 -722 -775 -28 -155 36 0
-718 -720 -775 -132 -33 36 0
-718 -721 -775 -132 -76 36 0
-718 -722 -775 -132 -155 36 0
-719 -720 -775 -182 -33 36 0
-719 -721 -775 -182 -76 36 0
-719 -722 -775 -182 -155 36 0
-717 -720 -776 -28 -33 67 0
-717 -721 -776 -28 -76 67 0
-717 -722 -776 -28 -155 67 0
-718 -720 -776 -132 -33 67 0
-718 -721 -776 -132 -76 67 0
-718 -722 -776 -132 -155 67 0
-719 -720 -776 -182 -33 67 0
-719 -721 -776 -182 -76 67 0
-719 -722 -776 -182 -155 67 0
-720 -723 -777 -33 -37 71 0
-720 -724 -777 -33 -53 71 0
-720 -725 -777 -33 -140 71 0
-721 -723 -777 -76 -37 71 0
-721 -724 -777 -76 -53 71 0
-721 -725 -777 -76 -140 71 0
-722 -723 -777 -155 -37 71 0
-722 -724 -777 -155 -53 71 0
-722 -725 -777 -155 -140 71 0
-720 -723 -778 -33 -37 102 0
-720 -724 -778 -33 -53 102 0
-720 -725 -778 -33 -140 102 0
-721 -723 -778 -76 -37 102 0
-721 -724 -778 -76 -53 102 0
-721 -725 -778 -76 -140 102 0
-722 -723 -778 -155 -37 102 0
-722 -724 -778 -155 -53 102 0
-722 -725 -778 -155 -140 102 0
-720 -723 -779 -33 -37 145 0
-720 -724 -779 -33 -53 145 0
-720 -725 -779 -33 -140 145 0
-721 -723 -779 -76 -37 145 0
-721 -724 -779 -76 -53 145 0
-721 -725 -779 -76 -140 145 0
-722 -723 -779 -155 -37 145 0
-722 -724 -779 -155 -53 145 0
-722 -725 -779 -155 -140 145 0
-723 -726 -780 -37 -9 45 0
-723 -727 -780 -37 -185 45 0
-723 -728 -780 -37 -200 45 0
-724 -726 -780 -53 -9 45 0
-724 -727 -780 -53 -185 45 0
-724 -728 -780 -53 -200 45 0
-725 -726 -780 -140 -9 45 0
-725 -727 -780 -140 -185 45 0
-725 -728 -780 -140 -200 45 0
-723 -726 -781 -37 -9 103 0
-723 -727 -781 -37 -185 103 0
-723 -728 -781 -37 -200 103 0
-724 -726 -781 -53 -9 103 0
-724 -727 -781 -53 -185 103 0
-724 -728 -781 -53 -200 103 0
-725 -726 -781 -140 -9 103 0
-725 -727 -781 -140 -185 103 0
-725 -728 -781 -140 -200 103 0
-723 -726 -782 -37 -9 157 0
-723 -727 -782 -37 -185 157 0
-723 -728 -782 -37 -200 157 0
-724 -726 -782 -53 -9 157 0
-724 -727 -782 -53 -185 157 0
-724 -728 -782 -53 -200 157 0
-725 -726 -782 -140 -9 157 0
-725 -727 -782 -140 -185 157 0
-725 -728 -782 -140 -200 157 0
-726 -729 -783 -9 -81 23 0
-726 -730 -783 -9 -160 23 0
-726 -731 -783 -9 -173 23 0
-727 -729 -783 -185 -81 23 0
-727 -730 -783 -185 -160 23 0
-727 -731 -783 -185 -173 23 0
-728 -729 -783 -200 -81 23 0
-728 -730 -783 -200 -160 23 0
-728 -731 -783 -200 -173 23 0
-726 -729 -784 -9 -81 60 0
-726 -730 -784 -9 -160 60 0
-726 -731 -784 -9 -173 60 0
-727 -729 -784 -185 -81 60 0
-727 -730 -784 -185 -160 60 0
-727 -731 -784 -185 -173 60 0
-728 -729 -784 -200 -81 60 0
-728 -730 -784 -200 -160 60 0
-728 -731 -784 -200 -173 60 0
-726 -729 -785 -9 -81 125 0
-726 -730 -785 -9 -160 125 0
-726 -731 -785 -9 -173 125 0
-727 -729 -785 -185 -81 125 0
-727 -730 -785 -185 -160 125 0
-727 -731 -785 -185 -173 125 0
-728 -729 -785 -200 -81 125 0
-728 -730 -785 -200 -160 125 0
-728 -731 -785 -200 -173 125 0
-729 -732 -786 -81 -142 2 0
-729 -733 -786 -81 -177 2 0
-729 -734 -786 -81 -192 2 0
-730 -732 -786 -160 -142 2 0
-730 -733 -786 -160 -177 2 0
-730 -734 -786 -160 -192 2 0
-731 -732 -786 -173 -142 2 0
-731 -733 -786 -173 -177 2 0
-731 -734 -786 -173 -192 2 0
-729 -732 -787 -81 -142 46 0
-729 -733 -787 -81 -177 46 0
-729 -734 -787 -81 -192 46 0
-730 -732 -787 -160 -142 46 0
-730 -733 -787 -160 -177 46 0
-730 -734 -787 -160 -192 46 0
-731 -732 -787 -173 -142 46 0
-731 -733 -787 -173 -177 46 0
-731 -734 -787 -173 -192 46 0
-729 -732 -788 -81 -142 136 0
-729 -733 -788 -81 -177 136 0
-729 -734 -788 -81 -192 136 0
-730 -732 -788 -160 -142 136 0
-730 -733 -788 -160 -177 136 0
-730 -734 -788 -160 -192 136 0
-731 -732 -788 -173 -142 136 0
-731 -733 -788 -173 -177 136 0
-731 -734 -788 -173 -192 136 0
-732 -735 -789 -142 -46 82 0
-732 -736 -789 -142 -53 82 0
-732 -737 -789 -142 -77 82 0
-733 -735 -789 -177 -46 82 0
-733 -736 -789 -177 -53 82 0
-733 -737 -789 -177 -77 82 0
-734 -735 -789 -192 -46 82 0
-734 -736 -789 -192 -53 82 0
-734 -737 -789 -192 -77 82 0
-732 -735 -790 -142 -46 129 0
-732 -736 -790 -142 -53 129 0
-732 -737 -790 -142 -77 129 0
-733 -735 -790 -177 -46 129 0
-733 -736 -790 -177 -53 129 0
-733 -737 -790 -177 -77 129 0
-734 -735 -790 -192 -46 129 0
-734 -736 -790 -192 -53 129 0
-734 -737 -790 -192 -77 129 0
-732 -735 -791 -142 -46 167 0
-732 -736 -791 -142 -53 167 0
-732 -737 -791 -142 -77 167 0
-733 -735 -791 -177 -46 167 0
-733 -736 -791 -177 -53 167 0
-733 -737 -791 -177 -77 167 0
-734 -735 -791 -192 -46 167 0
-734 -736 -791 -192 -53 167 0
-734 -737 -791 -192 -77 167 0
-735 -738 -792 -46 -41 113 0
-735 -739 -792 -46 -111 113 0
-735 -740 -792 -46 -138 113 0
-736 -738 -792 -53 -41 113 0
-736 -739 -792 -53 -111 113 0
-736 -740 -792 -53 -138 113 0
-737 -738 -792 -77 -41 113 0
-737 -739 -792 -77 -111 113 0
-737 -740 -792 -77 -138 113 0
-735 -738 -793 -46 -41 164 0
-735 -739 -793 -46 -111 164 0
-735 -740 -793 -46 -138 164 0
-736 -738 -793 -53 -41 164 0
-736 -739 -793 -53 -111 164 0
-736 -740 -793 -53 -138 164 0
-737 -738 -793 -77 -41 164 0
-737 -739 -793 -77 -111 164 0
-737 -740 -793 -77 -138 164 0
-735 -738 -794 -46 -41 176 0
-735 -739 -794 -46 -111 176 0
-735 -740 -794 -46 -138 176 0
-736 -738 -794 -53 -41 176 0
-736 -739 -794 -53 -111 176 0
-736 -740 -794 -53 -138 176 0
-737 -738 -794 -77 -41 176 0
-737 -739 -794 -77 -111 176 0
-737 -740 -794 -77 -138 176 0
-741 -744 -795 -13 -64 58 0
-741 -745 -795 -13 -65 58 0
-741 -746 -795 -13 -200 58 0
-742 -744 -795 -171 -64 58 0
-742 -745 -795 -171 -65 58 0
-742 -746 -795 -171 -200 58 0
-743 -744 -795 -183 -64 58 0
-743 -745 -795 -183 -65 58 0
-743 -746 -795 -183 -200 58 0
-741 -744 -796 -13 -64 62 0
-741 -745 -796 -13 -65 62 0
-741 -746 -796 -13 -200 62 0
-742 -744 -796 -171 -64 62 0
-742 -745 -796 -171 -65 62 0
-742 -746 -796 -171 -200 62 0
-743 -744 -796 -183 -64 62 0
-743 -745 -796 -183 -65 62 0
-743 -746 -796 -183 -200 62 0
-741 -744 -797 -13 -64 188 0
-741 -745 -797 -13 -65 188 0
-741 -746 -797 -13 -200 188 0
-742 -744 -797 -171 -64 188 0
-742 -745 -797 -171 -65 188 0
-742 -746 -797 -171 -200 188 0
-743 -744 -797 -183 -64 188 0
-743 -745 -797 -183 -65 188 0
-743 -746 -797 -183 -200 188 0
-744 -747 -798 -64 -17 81 0
-744 -748 -798 -64 -115 81 0
-744 -749 -798 -64 -175 81 0
-745 -747 -798 -65 -17 81 0
-745 -748 -798 -65 -115 81 0
-745 -749 -798 -65 -175 81 0
-746 -747 -798 -200 -17 81 0
-746 -748 -798 -200 -115 81 0
-746 -749 -798 -200 -175 81 0
-744 -747 -799 -64 -17 127 0
-744 -748 -799 -64 -115 127 0
-744 -749 -799 -64 -175 127 0
-745 -747 -799 -65 -17 127 0
-745 -748 -799 -65 -115 127 0
-745 -749 -799 -65 -175 127 0
-746 -747 -799 -200 -17 127 0
-746 -748 -799 -200 -115 127 0
-746 -749 -799 -200 -175 127 0
-744 -747 -800 -64 -17 176 0
-744 -748 -800 -64 -115 176 0
-744 -749 -800 -64 -175 176 0
-745 -747 -800 -65 -17 176 0
-745 -748 -800 -65 -115 176 0
-745 -749 -800 -65 -175 176 0
-746 -747 -800 -200 -17 176 0
-746 -748 -800 -200 -115 176 0
-746 -749 -800 -200 -175 176 0
-747 -750 -801 -17 -65 58 0
-747 -751 -801 -17 -111 58 0
-747 -752 -801 -17 -141 58 0
-748 -750 -801 -115 -65 58 0
-748 -751 -801 -115 -111 58 0
-748 -752 -801 -115 -141 58 0
-749 -750 -801 -175 -65 58 0
-749 -751 -801 -175 -111 58 0
-749 -752 -801 -175 -141 58 0
-747 -750 -802 -17 -65 123 0
-747 -751 -802 -17 -111 123 0
-747 -752 -802 -17 -141 123 0
-748 -750 -802 -115 -65 123 0
-748 -751 -802 -115 -111 123 0
-748 -752 -802 -115 -141 123 0
-749 -750 -802 -175 -65 123 0
-749 -751 -802 -175 -111 123 0
-749 -752 -802 -175 -141 123 0
-747 -750 -803 -17 -65 183 0
-747 -751 -803 -17 -111 183 0
-747 -752 -803 -17 -141 183 0
-748 -750 -803 -115 -65 183 0
-748 -751 -803 -115 -111 183 0
-748 -752 -803 -115 -141 183 0
-749 -750 -803 -175 -65 183 0
-749 -751 -803 -175 -111 183 0
-749 -752 -803 -175 -141 183 0
-750 -753 -804 -65 -113 87 0
-750 -754 -804 -65 -138 87 0
-750 -755 -804 -65 -139 87 0
-751 -753 -804 -111 -113 87 0
-751 -754 -804 -111 -138 87 0
-751 -755 -804 -111 -139 87 0
-752 -753 -804 -141 -113 87 0
-752 -754 -804 -141 -138 87 0
-752 -755 -804 -141 -139 87 0
-750 -753 -805 -65 -113 106 0
-750 -754 -805 -65 -138 106 0
-750 -755 -805 -65 -139 106 0
-751 -753 -805 -111 -113 106 0
-751 -754 -805 -111 -138 106 0
-751 -755 -805 -111 -139 106 0
-752 -753 -805 -141 -113 106 0
-752 -754 -805 -141 -138 106 0
-752 -755 -805 -141 -139 106 0
-750 -753 -806 -65 -113 144 0
-750 -754 -806 -65 -138 144 0
-750 -755 -806 -65 -139 144 0
-751 -753 -806 -111 -113 144 0
-751 -754 -806 -111 -138 144 0
-751 -755 -806 -111 -139 144 0
-752 -753 -806 -141 -113 144 0
-752 -754 -806 -141 -138 144 0
-752 -755 -806 -141 -139 144 0
-753 -756 -807 -113 -3 157 0
-753 -757 -807 -113 -102 157 0
-753 -758 -807 -113 -117 157 0
-754 -756 -807 -138 -3 157 0
-754 -757 -807 -138 -102 157 0
-754 -758 -807 -138 -117 157 0
-755 -756 -807 -139 -3 157 0
-755 -757 -807 -139 -102 157 0
-755 -758 -807 -139 -117 157 0
-753 -756 -808 -113 -3 168 0
-753 -757 -808 -113 -102 168 0
-753 -758 -808 -113 -117 168 0
-754 -756 -808 -138 -3 168 0
-754 -757 -808 -138 -102 168 0
-754 -758 -808 -138 -117 168 0
-755 -756 -808 -139 -3 168 0
-755 -757 -808 -139 -102 168 0
-755 -758 -808 -139 -117 168 0
-753 -756 -809 -113 -3 187 0
-753 -757 -809 -113 -102 187 0
-753 -758 -809 -113 -117 187 0
-754 -756 -809 -138 -3 187 0
-754 -757 -809 -138 -102 187 0
-754 -758 -809 -138 -117 187 0
-755 -756 -809 -139 -3 187 0
-755 -757 -809 -139 -102 187 0
-755 -758 -809 -139 -117 187 0
-756 -759 -810 -3 -44 57 0
-756 -760 -810 -3 -67 57 0
-756 -761 -810 -3 -87 57 0
-757 -759 -810 -102 -44 57 0
-757 -760 -810 -102 -67 57 0
-757 -761 -810 -102 -87 57 0
-758 -759 -810 -117 -44 57 0
-758 -760 -810 -117 -67 57 0
-758 -761 -810 -117 -87 57 0
-756 -759 -811 -3 -44 71 0
-756 -760 -811 -3 -67 71 0
-756 -761 -811 -3 -87 71 0
-757 -759 -811 -102 -44 71 0
-757 -760 -811 -102 -67 71 0
-757 -761 -811 -102 -87 71 0
-758 -759 -811 -117 -44 71 0
-758 -760 -811 -117 -67 71 0
-758 -761 -811 -117 -87 71 0
-756 -759 -812 -3 -44 166 0
-756 -760 -812 -3 -67 166 0
-756 -761 -812 -3 -87 166 0
-757 -759 -812 -102 -44 166 0
-757 -760 -812 -102 -67 166 0
-757 -761 -812 -102 -87 166 0
-758 -759 -812 -117 -44 166 0
-758 -760 -812 -117 -67 166 0
-758 -761 -812 -117 -87 166 0
-759 -762 -813 -44 -7 13 0
-759 -763 -813 -44 -125 13 0
-759 -764 -813 -44 -166 13 0
-760 -762 -813 -67 -7 13 0
-760 -763 -813 -67 -125 13 0
-760 -764 -813 -67 -166 13 0
-761 -762 -813 -87 -7 13 0
-761 -763 -813 -87 -125 13 0
-761 -764 -813 -87 -166 13 0
-759 -762 -814 -44 -7 19 0
-759 -763 -814 -44 -125 19 0
-759 -764 -814 -44 -166 19 0
-760 -762 -814 -67 -7 19 0
-760 -763 -814 -67 -125 19 0
-760 -764 -814 -67 -166 19 0
-761 -762 -814 -87 -7 19 0
-761 -763 -814 -87 -125 19 0
-761 -764 -814 -87 -166 19 0
-759 -762 -815 -44 -7 196 0
-759 -763 -815 -44 -125 196 0
-759 -764 -815 -44 -166 196 0
-760 -762 -815 -67 -7 196 0
-760 -763 -815 -67 -125 196 0
-760 -764 -815 -67 -166 196 0
-761 -762 -815 -87 -7 196 0
-761 -763 -815 -87 -125 196 0
-761 -764 -815 -87 -166 196 0
-762 -765 -816 -7 -5 95 0
-762 -766 -816 -7 -107 95 0
-762 -767 -816 -7 -147 95 0
-763 -765 -816 -125 -5 95 0
-763 -766 -816 -125 -107 95 0
-763 -767 -816 -125 -147 95 0
-764 -765 -816 -166 -5 95 0
-764 -766 -816 -166 -107 95 0
-764 -767 -816 -166 -147 95 0
-762 -765 -817 -7 -5 131 0
-762 -766 -817 -7 -107 131 0
-762 -767 -817 -7 -147 131 0
-763 -765 -817 -125 -5 131 0
-763 -766 -817 -125 -107 131 0
-763 -767 -817 -125 -147 131 0
-764 -765 -817 -166 -5 131 0
-764 -766 -817 -166 -107 131 0
-764 -767 -817 -166 -147 131 0
-762 -765 -818 -7 -5 166 0
-762 -766 -818 -7 -107 166 0
-762 -767 -818 -7 -147 166 0
-763 -765 -818 -125 -5 166 0
-763 -766 -818 -125 -107 166 0
-763 -767 -818 -125 -147 166 0
-765 -768 -819 -5 -16 41 0
-765 -769 -819 -5 -91 41 0
-765 -770 -819 -5 -178 41 0
-766 -768 -819 -107 -16 41 0
-766 -769 -819 -107 -91 41 0
-766 -770 -819 -107 -178 41 0
-767 -768 -819 -147 -16 41 0
-767 -769 -819 -147 -91 41 0
-767 -770 -819 -147 -178 41 0
-765 -768 -820 -5 -16 131 0
-765 -769 -820 -5 -91 131 0
-765 -770 -820 -5 -178 131 0
-766 -768 -820 -107 -16 131 0
-766 -769 -820 -107 -91 131 0
-766 -770 -820 -107 -178 131 0
-767 -768 -820 -147 -16 131 0
-767 -769 -820 -147 -91 131 0
-767 -770 -820 -147 -178 131 0
-765 -768 -821 -5 -16 197 0
-765 -769 -821 -5 -91 197 0
-765 -770 -821 -5 -178 197 0
-766 -768 -821 -107 -16 197 0
-766 -769 -821 -107 -91 197 0
-766 -770 -821 -107 -178 197 0
-767 -768 -821 -147 -16 197 0
-767 -769 -821 -147 -91 197 0
-767 -770 -821 -147 -178 197 0
-768 -771 -822 -16 -36 53 0
-768 -772 -822 -16 -149 53 0
-768 -773 -822 -16 -152 53 0
-769 -771 -822 -91 -36 53 0
-769 -772 -822 -91 -149 53 0
-769 -773 -822 -91 -152 53 0
-770 -771 -822 -178 -36 53 0
-770 -772 -822 -178 -149 53 0
-770 -773 -822 -178 -152 53 0
-768 -771 -823 -16 -36 77 0
-768 -772 -823 -16 -149 77 0
-768 -773 -823 -16 -152 77 0
-769 -771 -823 -91 -36 77 0
-769 -772 -823 -91 -149 77 0
-769 -773 -823 -91 -152 77 0
-770 -771 -823 -178 -36 77 0
-770 -772 -823 -178 -149 77 0
-770 -773 -823 -178 -152 77 0
-768 -771 -824 -16 -36 80 0
-768 -772 -824 -16 -149 80 0
-768 -773 -824 -16 -152 80 0
-769 -771 -824 -91 -36 80 0
-769 -772 -824 -91 -149 80 0
-769 -773 -824 -91 -152 80 0
-770 -771 -824 -178 -36 80 0
-770 -772 -824 -178 -149 80 0
-770 -773 -824 -178 -152 80 0
-771 -774 -825 -36 -33 77 0
-771 -775 -825 -36 77 0
-771 -776 -825 -36 -67 77 0
-772 -774 -825 -149 -33 77 0
-772 -775 -825 -149 -36 77 0
-772 -776 -825 -149 -67 77 0
-773 -774 -825 -152 -33 77 0
-773 -775 -825 -152 -36 77 0
-773 -776 -825 -152 -67 77 0
-771 -774 -826 -36 -33 142 0
-771 -775 -826 -36 142 0
-771 -776 -826 -36 -67 142 0
-772 -774 -826 -149 -33 142 0
-772 -775 -826 -149 -36 142 0
-772 -776 -826 -149 -67 142 0
-773 -774 -826 -152 -33 142 0
-773 -775 -826 -152 -36 142 0
-773 -776 -826 -152 -67 142 0
-771 -774 -827 -36 -33 178 0
-771 -775 -827 -36 178 0
-771 -776 -827 -36 -67 178 0
-772 -774 -827 -149 -33 178 0
-772 -775 -827 -149 -36 178 0
-772 -776 -827 -149 -67 178 0
-773 -774 -827 -152 -33 178 0
-773 -775 -827 -152 -36 178 0
-773 -776 -827 -152 -67 178 0
-774 -777 -828 -33 -71 43 0
-774 -778 -828 -33 -102 43 0
-774 -779 -828 -33 -145 43 0
-775 -777 -828 -36 -71 43 0
-775 -778 -828 -36 -102 43 0
-775 -779 -828 -36 -145 43 0
-776 -777 -828 -67 -71 43 0
-776 -778 -828 -67 -102 43 0
-776 -779 -828 -67 -145 43 0
-774 -777 -829 -33 -71 96 0
-774 -778 -829 -33 -102 96 0
-774 -779 -829 -33 -145 96 0
-775 -777 -829 -36 -71 96 0
-775 -778 -829 -36 -102 96 0
-775 -779 -829 -36 -145 96 0
-776 -777 -829 -67 -71 96 0
-776 -778 -829 -67 -102 96 0
-776 -779 -829 -67 -145 96 0
-774 -777 -830 -33 -71 180 0
-774 -778 -830 -33 -102 180 0
-774 -779 -830 -33 -145 180 0
-775 -777 -830 -36 -71 180 0
-775 -778 -830 -36 -102 180 0
-775 -779 -830 -36 -145 180 0
-776 -777 -830 -67 -71 180 0
-776 -778 -830 -67 -102 180 0
-776 -779 -830 -67 -145 180 0
-777 -780 -831 -71 -45 119 0
-777 -781 -831 -71 -103 119 0
-777 -782 -831 -71 -157 119 0
-778 -780 -831 -102 -45 119 0
-778 -781 -831 -102 -103 119 0
-778 -782 -831 -102 -157 119 0
-779 -780 -831 -145 -45 119 0
-779 -781 -831 -145 -103 119 0
-779 -782 -831 -145 -157 119 0
-777 -780 -832 -71 -45 180 0
-777 -781 -832 -71 -103 180 0
-777 -782 -832 -71 -157 180 0
-778 -780 -832 -102 -45 180 0
-778 -781 -832 -102 -103 180 0
-778 -782 -832 -102 -157 180 0
-779 -780 -832 -145 -45 180 0
-779 -781 -832 -145 -103 180 0
-779 -782 -832 -145 -157 180 0
-777 -780 -833 -71 -45 189 0
-777 -781 -833 -71 -103 189 0
-777 -782 -833 -71 -157 189 0
-778 -780 -833 -102 -45 189 0
-778 -781 -833 -102 -103 189 0
-778 -782 -833 -102 -157 189 0
-779 -780 -833 -145 -45 189 0
-779 -781 -833 -145 -103 189 0
-779 -782 -833 -145 -157 189 0
-780 -783 -834 -45 -23 22 0
-780 -784 -834 -45 -60 22 0
-780 -785 -834 -45 -125 22 0
-781 -783 -834 -103 -23 22 0
-781 -784 -834 -103 -60 22 0
-781 -785 -834 -103 -125 22 0
-782 -783 -834 -157 -23 22 0
-782 -784 -834 -157 -60 22 0
-782 -785 -834 -157 -125 22 0
-780 -783 -835 -45 -23 32 0
-780 -784 -835 -45 -60 32 0
-780 -785 -835 -45 -125 32 0
-781 -783 -835 -103 -23 32 0
-781 -784 -835 -103 -60 32 0
-781 -785 -835 -103 -125 32 0
-782 -783 -835 -157 -23 32 0
-782 -784 -835 -157 -60 32 0
-782 -785 -835 -157 -125 32 0
-780 -783 -836 -45 -23 153 0
-780 -784 -836 -45 -60 153 0
-780 -785 -836 -45 -125 153 0
-781 -783 -836 -103 -23 153 0
-781 -784 -836 -103 -60 153 0
-781 -785 -836 -103 -125 153 0
-782 -783 -836 -157 -23 153 0
-782 -784 -836 -157 -60 153 0
-782 -785 -836 -157 -125 153 0
-783 -786 -837 -23 -2 132 0
-783 -787 -837 -23 -46 132 0
-783 -788 -837 -23 -136 132 0
-784 -786 -837 -60 -2 132 0
-784 -787 -837 -60 -46 132 0
-784 -788 -837 -60 -136 132 0
-785 -786 -837 -125 -2 132 0
-785 -787 -837 -125 -46 132 0
-785 -788 -837 -125 -136 132 0
-783 -786 -838 -23 -2 147 0
-783 -787 -838 -23 -46 147 0
-783 -788 -838 -23 -136 147 0
-784 -786 -838 -60 -2 147 0
-784 -787 -838 -60 -46 147 0
-784 -788 -838 -60 -136 147 0
-785 -786 -838 -125 -2 147 0
-785 -787 -838 -125 -46 147 0
-785 -788 -838 -125 -136 147 0
-783 -786 -839 -23 -2 156 0
-783 -787 -839 -23 -46 156 0
-783 -788 -839 -23 -136 156 0
-784 -786 -839 -60 -2 156 0
-784 -787 -839 -60 -46 156 0
-784 -788 -839 -60 -136 156 0
-785 -786 -839 -125 -2 156 0
-785 -787 -839 -125 -46 156 0
-785 -788 -839 -125 -136 156 0
-786 -789 -840 -2 -82 40 0
-786 -790 -840 -2 -129 40 0
-786 -791 -840 -2 -167 40 0
-787 -789 -840 -46 -82 40 0
-787 -790 -840 -46 -129 40 0
-787 -791 -840 -46 -167 40 0
-788 -789 -840 -136 -82 40 0
-788 -790 -840 -136 -129 40 0
-788 -791 -840 -136 -167 40 0
-786 -789 -841 -2 -82 46 0
-786 -790 -841 -2 -129 46 0
-786 -791 -841 -2 -167 46 0
-788 -789 -841 -136 -82 46 0
-788 -790 -841 -136 -129 46 0
-788 -791 -841 -136 -167 46 0
-786 -789 -842 -2 -82 97 0
-786 -790 -842 -2 -129 97 0
-786 -791 -842 -2 -167 97 0
-787 -789 -842 -46 -82 97 0
-787 -790 -842 -46 -129 97 0
-787 -791 -842 -46 -167 97 0
-788 -789 -842 -136 -82 97 0
-788 -790 -842 -136 -129 97 0
-788 -791 -842 -136 -167 97 0
-789 -792 -843 -82 -113 56 0
-789 -793 -843 -82 -164 56 0
-789 -794 -843 -82 -176 56 0
-790 -792 -843 -129 -113 56 0
-790 -793 -843 -129 -164 56 0
-790 -794 -843 -129 -176 56 0
-791 -792 -843 -167 -113 56 0
-791 -793 -843 -167 -164 56 0
-791 -794 -843 -167 -176 56 0
-789 -792 -844 -82 -113 65 0
-789 -793 -844 -82 -164 65 0
-789 -794 -844 -82 -176 65 0
-790 -792 -844 -129 -113 65 0
-790 -793 -844 -129 -164 65 0
-790 -794 -844 -129 -176 65 0
-791 -792 -844 -167 -113 65 0
-791 -793 -844 -167 -164 65 0
-791 -794 -844 -167 -176 65 0
-789 -792 -845 -82 -113 110 0
-789 -793 -845 -82 -164 110 0
-789 -794 -845 -82 -176 110 0
-790 -792 -845 -129 -113 110 0
-790 -793 -845 -129 -164 110 0
-790 -794 -845 -129 -176 110 0
-791 -792 -845 -167 -113 110 0
-791 -793 -845 -167 -164 110 0
-791 -794 -845 -167 -176 110 0
-795 -798 -846 -58 -81 146 0
-795 -799 -846 -58 -127 146 0
-795 -800 -846 -58 -176 146 0
-796 -798 -846 -62 -81 146 0
-796 -799 -846 -62 -127 146 0
-796 -800 -846 -62 -176 146 0
-797 -798 -846 -188 -81 146 0
-797 -799 -846 -188 -127 146 0
-797 -800 -846 -188 -176 146 0
-795 -798 -847 -58 -81 185 0
-795 -799 -847 -58 -127 185 0
-795 -800 -847 -58 -176 185 0
-796 -798 -847 -62 -81 185 0
-796 -799 -847 -62 -127 185 0
-796 -800 -847 -62 -176 185 0
-797 -798 -847 -188 -81 185 0
-797 -799 -847 -188 -127 185 0
-797 -800 -847 -188 -176 185 0
-795 -798 -848 -58 -81 194 0
-795 -799 -848 -58 -127 194 0
-795 -800 -848 -58 -176 194 0
-796 -798 -848 -62 -81 194 0
-796 -799 -848 -62 -127 194 0
-796 -800 -848 -62 -176 194 0
-797 -798 -848 -188 -81 194 0
-797 -799 -848 -188 -127 194 0
-797 -800 -848 -188 -176 194 0
-798 -801 -849 -81 -58 14 0
-798 -802 -849 -81 -123 14 0
-798 -803 -849 -81 -183 14 0
-799 -801 -849 -127 -58 14 0
-799 -802 -849 -127 -123 14 0
-799 -803 -849 -127 -183 14 0
-800 -801 -849 -176 -58 14 0
-800 -802 -849 -176 -123 14 0
-800 -803 -849 -176 -183 14 0
-798 -801 -850 -81 -58 127 0
-798 -802 -850 -81 -123 127 0
-798 -803 -850 -81 -183 127 0
-800 -801 -850 -176 -58 127 0
-800 -802 -850 -176 -123 127 0
-800 -803 -850 -176 -183 127 0
-798 -801 -851 -81 -58 175 0
-798 -802 -851 -81 -123 175 0
-798 -803 -851 -81 -183 175 0
-799 -801 -851 -127 -58 175 0
-799 -802 -851 -127 -123 175 0
-799 -803 -851 -127 -183 175 0
-800 -801 -851 -176 -58 175 0
-800 -802 -851 -176 -123 175 0
-800 -803 -851 -176 -183 175 0
-801 -804 -852 -58 -87 101 0
-801 -805 -852 -58 -106 101 0
-801 -806 -852 -58 -144 101 0
-802 -804 -852 -123 -87 101 0
-802 -805 -852 -123 -106 101 0
-802 -806 -852 -123 -144 101 0
-803 -804 -852 -183 -87 101 0
-803 -805 -852 -183 -106 101 0
-803 -806 -852 -183 -144 101 0
-801 -804 -853 -58 -87 164 0
-801 -805 -853 -58 -106 164 0
-801 -806 -853 -58 -144 164 0
-802 -804 -853 -123 -87 164 0
-802 -805 -853 -123 -106 164 0
-802 -806 -853 -123 -144 164 0
-803 -804 -853 -183 -87 164 0
-803 -805 -853 -183 -106 164 0
-803 -806 -853 -183 -144 164 0
-801 -804 -854 -58 -87 184 0
-801 -805 -854 -58 -106 184 0
-801 -806 -854 -58 -144 184 0
-802 -804 -854 -123 -87 184 0
-802 -805 -854 -123 -106 184 0
-802 -806 -854 -123 -144 184 0
-803 -804 -854 -183 -87 184 0
-803 -805 -854 -183 -106 184 0
-803 -806 -854 -183 -144 184 0
-804 -807 -855 -87 -157 90 0
-804 -808 -855 -87 -168 90 0
-804 -809 -855 -87 -187 90 0
-805 -807 -855 -106 -157 90 0
-805 -808 -855 -106 -168 90 0
-805 -809 -855 -106 -187 90 0
-806 -807 -855 -144 -157 90 0
-806 -808 -855 -144 -168 90 0
-806 -809 -855 -144 -187 90 0
-804 -807 -856 -87 -157 99 0
-804 -808 -856 -87 -168 99 0
-804 -809 -856 -87 -187 99 0
-805 -807 -856 -106 -157 99 0
-805 -808 -856 -106 -168 99 0
-805 -809 -856 -106 -187 99 0
-806 -807 -856 -144 -157 99 0
-806 -808 -856 -144 -168 99 0
-806 -809 -856 -144 -187 99 0
-804 -807 -857 -87 -157 132 0
-804 -808 -857 -87 -168 132 0
-804 -809 -857 -87 -187 132 0
-805 -807 -857 -106 -157 132 0
-805 -808 -857 -106 -168 132 0
-805 -809 -857 -106 -187 132 0
-806 -807 -857 -144 -157 132 0
-806 -808 -857 -144 -168 132 0
-806 -809 -857 -144 -187 132 0
-807 -810 -858 -157 -57 43 0
-807 -811 -858 -157 -71 43 0
-807 -812 -858 -157 -166 43 0
-808 -810 -858 -168 -57 43 0
-808 -811 -858 -168 -71 43 0
-808 -812 -858 -168 -166 43 0
-809 -810 -858 -187 -57 43 0
-809 -811 -858 -187 -71 43 0
-809 -812 -858 -187 -166 43 0
-807 -810 -859 -157 -57 140 0
-807 -811 -859 -157 -71 140 0
-807 -812 -859 -157 -166 140 0
-808 -810 -859 -168 -57 140 0
-808 -811 -859 -168 -71 140 0
-808 -812 -859 -168 -166 140 0
-809 -810 -859 -187 -57 140 0
-809 -811 -859 -187 -71 140 0
-809 -812 -859 -187 -166 140 0
-807 -810 -860 -157 -57 187 0
-807 -811 -860 -157 -71 187 0
-807 -812 -860 -157 -166 187 0
-808 -810 -860 -168 -57 187 0
-808 -811 -860 -168 -71 187 0
-808 -812 -860 -168 -166 187 0
-810 -813 -861 -57 -13 11 0
-810 -814 -861 -57 -19 11 0
-810 -815 -861 -57 -196 11 0
-811 -813 -861 -71 -13 11 0
-811 -814 -861 -71 -19 11 0
-811 -815 -861 -71 -196 11 0
-812 -813 -861 -166 -13 11 0
-812 -814 -861 -166 -19 11 0
-812 -815 -861 -166 -196 11 0
-810 -813 -862 -57 -13 24 0
-810 -814 -862 -57 -19 24 0
-810 -815 -862 -57 -196 24 0
-811 -813 -862 -71 -13 24 0
-811 -814 -862 -71 -19 24 0
-811 -815 -862 -71 -196 24 0
-812 -813 -862 -166 -13 24 0
-812 -814 -862 -166 -19 24 0
-812 -815 -862 -166 -196 24 0
-810 -813 -863 -57 -13 135 0
-810 -814 -863 -57 -19 135 0
-810 -815 -863 -57 -196 135 0
-811 -813 -863 -71 -13 135 0
-811 -814 -863 -71 -19 135 0
-811 -815 -863 -71 -196 135 0
-812 -813 -863 -166 -13 135 0
-812 -814 -863 -166 -19 135 0
-812 -815 -863 -166 -196 135 0
-813 -816 -864 -13 -95 26 0
-813 -817 -864 -13 -131 26 0
-813 -818 -864 -13 -166 26 0
-814 -816 -864 -19 -95 26 0
-814 -817 -864 -19 -131 26 0
-814 -818 -864 -19 -166 26 0
-815 -816 -864 -196 -95 26 0
-815 -817 -864 -196 -131 26 0
-815 -818 -864 -196 -166 26 0
-813 -816 -865 -13 -95 66 0
-813 -817 -865 -13 -131 66 0
-813 -818 -865 -13 -166 66 0
-814 -816 -865 -19 -95 66 0
-814 -817 -865 -19 -131 66 0
-814 -818 -865 -19 -166 66 0
-815 -816 -865 -196 -95 66 0
-815 -817 -865 -196 -131 66 0
-815 -818 -865 -196 -166 66 0
-813 -816 -866 -13 -95 161 0
-813 -817 -866 -13 -131 161 0
-813 -818 -866 -13 -166 161 0
-814 -816 -866 -19 -95 161 0
-814 -817 -866 -19 -131 161 0
-814 -818 -866 -19 -166 161 0
-815 -816 -866 -196 -95 161 0
-815 -817 -866 -196 -131 161 0
-815 -818 -866 -196 -166 161 0
-816 -819 -867 -95 -41 22 0
-816 -820 -867 -95 -131 22 0
-816 -821 -867 -95 -197 22 0
-817 -819 -867 -131 -41 22 0
-817 -820 -867 -131 22 0
-817 -821 -867 -131 -197 22 0
-818 -819 -867 -166 -41 22 0
-818 -820 -867 -166 -131 22 0
-818 -821 -867 -166 -197 22 0
-816 -819 -868 -95 -41 69 0
-816 -820 -868 -95 -131 69 0
-816 -821 -868 -95 -197 69 0
-817 -819 -868 -131 -41 69 0
-817 -820 -868 -131 69 0
-817 -821 -868 -131 -197 69 0
-818 -819 -868 -166 -41 69 0
-818 -820 -868 -166 -131 69 0
-818 -821 -868 -166 -197 69 0
-816 -819 -869 -95 -41 189 0
-816 -820 -869 -95 -131 189 0
-816 -821 -869 -95 -197 189 0
-817 -819 -869 -131 -41 189 0
-817 -820 -869 -131 189 0
-817 -821 -869 -131 -197 189 0
-818 -819 -869 -166 -41 189 0
-818 -820 -869 -166 -131 189 0
-818 -821 -869 -166 -197 189 0
-819 -822 -870 -41 -53 36 0
-819 -823 -870 -41 -77 36 0
-819 -824 -870 -41 -80 36 0
-820 -822 -870 -131 -53 36 0
-820 -823 -870 -131 -77 36 0
-820 -824 -870 -131 -80 36 0
-821 -822 -870 -197 -53 36 0
-821 -823 -870 -197 -77 36 0
-821 -824 -870 -197 -80 36 0
-819 -822 -871 -41 -53 158 0
-819 -823 -871 -41 -77 158 0
-819 -824 -871 -41 -80 158 0
-820 -822 -871 -131 -53 158 0
-820 -823 -871 -131 -77 158 0
-820 -824 -871 -131 -80 158 0
-821 -822 -871 -197 -53 158 0
-821 -823 -871 -197 -77 158 0
-821 -824 -871 -197 -80 158 0
-819 -822 -872 -41 -53 199 0
-819 -823 -872 -41 -77 199 0
-819 -824 -872 -41 -80 199 0
-820 -822 -872 -131 -53 199 0
-820 -823 -872 -131 -77 199 0
-820 -824 -872 -131 -80 199 0
-821 -822 -872 -197 -53 199 0
-821 -823 -872 -197 -77 199 0
-821 -824 -872 -197 -80 199 0
-822 -825 -873 -53 -77 169 0
-822 -826 -873 -53 -142 169 0
-822 -827 -873 -53 -178 169 0
-823 -825 -873 -77 169 0
-823 -826 -873 -77 -142 169 0
-823 -827 -873 -77 -178 169 0
-824 -825 -873 -80 -77 169 0
-824 -826 -873 -80 -142 169 0
-824 -827 -873 -80 -178 169 0
-822 -825 -874 -53 -77 176 0
-822 -826 -874 -53 -142 176 0
-822 -827 -874 -53 -178 176 0
-823 -825 -874 -77 176 0
-823 -826 -874 -77 -142 176 0
-823 -827 -874 -77 -178 176 0
-824 -825 -874 -80 -77 176 0
-824 -826 -874 -80 -142 176 0
-824 -827 -874 -80 -178 176 0
-822 -825 -875 -53 -77 180 0
-822 -826 -875 -53 -142 180 0
-822 -827 -875 -53 -178 180 0
-823 -825 -875 -77 180 0
-823 -826 -875 -77 -142 180 0
-823 -827 -875 -77 -178 180 0
-824 -825 -875 -80 -77 180 0
-824 -826 -875 -80 -142 180 0
-824 -827 -875 -80 -178 180 0
-825 -828 -876 -77 -43 21 0
-825 -829 -876 -77 -96 21 0
-825 -830 -876 -77 -180 21 0
-826 -828 -876 -142 -43 21 0
-826 -829 -876 -142 -96 21 0
-826 -830 -876 -142 -180 21 0
-827 -828 -876 -178 -43 21 0
-827 -829 -876 -178 -96 21 0
-827 -830 -876 -178 -180 21 0
-825 -828 -877 -77 -43 62 0
-825 -829 -877 -77 -96 62 0
-825 -830 -877 -77 -180 62 0
-826 -828 -877 -142 -43 62 0
-826 -829 -877 -142 -96 62 0
-826 -830 -877 -142 -180 62 0
-827 -828 -877 -178 -43 62 0
-827 -829 -877 -178 -96 62 0
-827 -830 -877 -178 -180 62 0
-825 -828 -878 -77 -43 114 0
-825 -829 -878 -77 -96 114 0
-825 -830 -878 -77 -180 114 0
-826 -828 -878 -142 -43 114 0
-826 -829 -878 -142 -96 114 0
-826 -830 -878 -142 -180 114 0
-827 -828 -878 -178 -43 114 0
-827 -829 -878 -178 -96 114 0
-827 -830 -878 -178 -180 114 0
-828 -831 -879 -43 -119 98 0
-828 -832 -879 -43 -180 98 0
-828 -833 -879 -43 -189 98 0
-829 -831 -879 -96 -119 98 0
-829 -832 -879 -96 -180 98 0
-829 -833 -879 -96 -189 98 0
-830 -831 -879 -180 -119 98 0
-830 -832 -879 -180 98 0
-830 -833 -879 -180 -189 98 0
-828 -831 -880 -43 -119 102 0
-828 -832 -880 -43 -180 102 0
-828 -833 -880 -43 -189 102 0
-829 -831 -880 -96 -119 102 0
-829 -832 -880 -96 -180 102 0
-829 -833 -880 -96 -189 102 0
-830 -831 -880 -180 -119 102 0
-830 -832 -880 -180 102 0
-830 -833 -880 -180 -189 102 0
-828 -831 -881 -43 -119 111 0
-828 -832 -881 -43 -180 111 0
-828 -833 -881 -43 -189 111 0
-829 -831 -881 -96 -119 111 0
-829 -832 -881 -96 -180 111 0
-829 -833 -881 -96 -189 111 0
-830 -831 -881 -180 -119 111 0
-830 -832 -881 -180 111 0
-830 -833 -881 -180 -189 111 0
-831 -834 -882 -119 -22 43 0
-831 -835 -882 -119 -32 43 0
-831 -836 -882 -119 -153 43 0
-832 -834 -882 -180 -22 43 0
-832 -835 -882 -180 -32 43 0
-832 -836 -882 -180 -153 43 0
-833 -834 -882 -189 -22 43 0
-833 -835 -882 -189 -32 43 0
-833 -836 -882 -189 -153 43 0
-831 -834 -883 -119 -22 84 0
-831 -835 -883 -119 -32 84 0
-831 -836 -883 -119 -153 84 0
-832 -834 -883 -180 -22 84 0
-832 -835 -883 -180 -32 84 0
-832 -836 -883 -180 -153 84 0
-833 -834 -883 -189 -22 84 0
-833 -835 -883 -189 -32 84 0
-833 -836 -883 -189 -153 84 0
-831 -834 -884 -119 -22 113 0
-831 -835 -884 -119 -32 113 0
-831 -836 -884 -119 -153 113 0
-832 -834 -884 -180 -22 113 0
-832 -835 -884 -180 -32 113 0
-832 -836 -884 -180 -153 113 0
-833 -834 -884 -189 -22 113 0
-833 -835 -884 -189 -32 113 0
-833 -836 -884 -189 -153 113 0
-834 -837 -885 -22 -132 33 0
-834 -838 -885 -22 -147 33 0
-834 -839 -885 -22 -156 33 0
-835 -837 -885 -32 -132 33 0
-835 -838 -885 -32 -147 33 0
-835 -839 -885 -32 -156 33 0
-836 -837 -885 -153 -132 33 0
-836 -838 -885 -153 -147 33 0
-836 -839 -885 -153 -156 33 0
-834 -837 -886 -22 -132 125 0
-834 -838 -886 -22 -147 125 0
-834 -839 -886 -22 -156 125 0
-835 -837 -886 -32 -132 125 0
-835 -838 -886 -32 -147 125 0
-835 -839 -886 -32 -156 125 0
-836 -837 -886 -153 -132 125 0
-836 -838 -886 -153 -147 125 0
-836 -839 -886 -153 -156 125 0
-834 -837 -887 -22 -132 160 0
-834 -838 -887 -22 -147 160 0
-834 -839 -887 -22 -156 160 0
-835 -837 -887 -32 -132 160 0
-835 -838 -887 -32 -147 160 0
-835 -839 -887 -32 -156 160 0
-836 -837 -887 -153 -132 160 0
-836 -838 -887 -153 -147 160 0
-836 -839 -887 -153 -156 160 0
-837 -840 -888 -132 -40 31 0
-837 -841 -888 -132 -46 31 0
-837 -842 -888 -132 -97 31 0
-838 -840 -888 -147 -40 31 0
-838 -841 -888 -147 -46 31 0
-838 -842 -888 -147 -97 31 0
-839 -840 -888 -156 -40 31 0
-839 -841 -888 -156 -46 31 0
-839 -842 -888 -156 -97 31 0
-837 -840 -889 -132 -40 55 0
-837 -841 -889 -132 -46 55 0
-837 -842 -889 -132 -97 55 0
-838 -840 -889 -147 -40 55 0
-838 -841 -889 -147 -46 55 0
-838 -842 -889 -147 -97 55 0
-839 -840 -889 -156 -40 55 0
-839 -841 -889 -156 -46 55 0
-839 -842 -889 -156 -97 55 0
-837 -840 -890 -132 -40 111 0
-837 -841 -890 -132 -46 111 0
-837 -842 -890 -132 -97 111 0
-838 -840 -890 -147 -40 111 0
-838 -841 -890 -147 -46 111 0
-838 -842 -890 -147 -97 111 0
-839 -840 -890 -156 -40 111 0
-839 -841 -890 -156 -46 111 0
-839 -842 -890 -156 -97 111 0
-840 -843 -891 -40 -56 105 0
-840 -844 -891 -40 -65 105 0
-840 -845 -891 -40 -110 105 0
-841 -843 -891 -46 -56 105 0
-841 -844 -891 -46 -65 105 0
-841 -845 -891 -46 -110 105 0
-842 -843 -891 -97 -56 105 0
-842 -844 -891 -97 -65 105 0
-842 -845 -891 -97 -110 105 0
-840 -843 -892 -40 -56 137 0
-840 -844 -892 -40 -65 137 0
-840 -845 -892 -40 -110 137 0
-841 -843 -892 -46 -56 137 0
-841 -844 -892 -46 -65 137 0
-841 -845 -892 -46 -110 137 0
-842 -843 -892 -97 -56 137 0
-842 -844 -892 -97 -65 137 0
-842 -845 -892 -97 -110 137 0
-840 -843 -893 -40 -56 154 0
-840 -844 -893 -40 -65 154 0
-840 -845 -893 -40 -110 154 0
-841 -843 -893 -46 -56 154 0
-841 -844 -893 -46 -65 154 0
-841 -845 -893 -46 -110 154 0
-842 -843 -893 -97 -56 154 0
-842 -844 -893 -97 -65 154 0
-842 -845 -893 -97 -110 154 0
-846 -849 -894 -146 -14 31 0
-846 -850 -894 -146 -127 31 0
-846 -851 -894 -146 -175 31 0
-847 -849 -894 -185 -14 31 0
-847 -850 -894 -185 -127 31 0
-847 -851 -894 -185 -175 31 0
-848 -849 -894 -194 -14 31 0
-848 -850 -894 -194 -127 31 0
-848 -851 -894 -194 -175 31 0
-846 -849 -895 -146 -14 76 0
-846 -850 -895 -146 -127 76 0
-846 -851 -895 -146 -175 76 0
-847 -849 -895 -185 -14 76 0
-847 -850 -895 -185 -127 76 0
-847 -851 -895 -185 -175 76 0
-848 -849 -895 -194 -14 76 0
-848 -850 -895 -194 -127 76 0
-848 -851 -895 -194 -175 76 0
-846 -849 -896 -146 -14 170 0
-846 -850 -896 -146 -127 170 0
-846 -851 -896 -146 -175 170 0
-847 -849 -896 -185 -14 170 0
-847 -850 -896 -185 -127 170 0
-847 -851 -896 -185 -175 170 0
-848 -849 -896 -194 -14 170 0
-848 -850 -896 -194 -127 170 0
-848 -851 -896 -194 -175 170 0
-849 -852 -897 -14 -101 64 0
-849 -853 -897 -14 -164 64 0
-849 -854 -897 -14 -184 64 0
-850 -852 -897 -127 -101 64 0
-850 -853 -897 -127 -164 64 0
-850 -854 -897 -127 -184 64 0
-851 -852 -897 -175 -101 64 0
-851 -853 -897 -175 -164 64 0
-851 -854 -897 -175 -184 64 0
-849 -852 -898 -14 -101 72 0
-849 -853 -898 -14 -164 72 0
-849 -854 -898 -14 -184 72 0
-850 -852 -898 -127 -101 72 0
-850 -853 -898 -127 -164 72 0
-850 -854 -898 -127 -184 72 0
-851 -852 -898 -175 -101 72 0
-851 -853 -898 -175 -164 72 0
-851 -854 -898 -175 -184 72 0
-849 -852 -899 -14 -101 97 0
-849 -853 -899 -14 -164 97 0
-849 -854 -899 -14 -184 97 0
-850 -852 -899 -127 -101 97 0
-850 -853 -899 -127 -164 97 0
-850 -854 -899 -127 -184 97 0
-851 -852 -899 -175 -101 97 0
-851 -853 -899 -175 -164 97 0
-851 -854 -899 -175 -184 97 0
-852 -855 -900 -101 -90 2 0
-852 -856 -900 -101 -99 2 0
-852 -857 -900 -101 -132 2 0
-853 -855 -900 -164 -90 2 0
-853 -856 -900 -164 -99 2 0
-853 -857 -900 -164 -132 2 0
-854 -855 -900 -184 -90 2 0
-854 -856 -900 -184 -99 2 0
-854 -857 -900 -184 -132 2 0
-852 -855 -901 -101 -90 144 0
-852 -856 -901 -101 -99 144 0
-852 -857 -901 -101 -132 144 0
-853 -855 -901 -164 -90 144 0
-853 -856 -901 -164 -99 144 0
-853 -857 -901 -164 -132 144 0
-854 -855 -901 -184 -90 144 0
-854 -856 -901 -184 -99 144 0
-854 -857 -901 -184 -132 144 0
-852 -855 -902 -101 -90 192 0
-852 -856 -902 -101 -99 192 0
-852 -857 -902 -101 -132 192 0
-853 -855 -902 -164 -90 192 0
-853 -856 -902 -164 -99 192 0
-853 -857 -902 -164 -132 192 0
-854 -855 -902 -184 -90 192 0
-854 -856 -902 -184 -99 192 0
-854 -857 -902 -184 -132 192 0
-855 -858 -903 -90 -43 49 0
-855 -859 -903 -90 -140 49 0
-855 -860 -903 -90 -187 49 0
-856 -858 -903 -99 -43 49 0
-856 -859 -903 -99 -140 49 0
-856 -860 -903 -99 -187 49 0
-857 -858 -903 -132 -43 49 0
-857 -859 -903 -132 -140 49 0
-857 -860 -903 -132 -187 49 0
-855 -858 -904 -90 -43 113 0
-855 -859 -904 -90 -140 113 0
-855 -860 -904 -90 -187 113 0
-856 -858 -904 -99 -43 113 0
-856 -859 -904 -99 -140 113 0
-856 -860 -904 -99 -187 113 0
-857 -858 -904 -132 -43 113 0
-857 -859 -904 -132 -140 113 0
-857 -860 -904 -132 -187 113 0
-855 -858 -905 -90 -43 136 0
-855 -859 -905 -90 -140 136 0
-855 -860 -905 -90 -187 136 0
-856 -858 -905 -99 -43 136 0
-856 -859 -905 -99 -140 136 0
-856 -860 -905 -99 -187 136 0
-857 -858 -905 -132 -43 136 0
-857 -859 -905 -132 -140 136 0
-857 -860 -905 -132 -187 136 0
-858 -861 -906 -43 -11 6 0
-858 -862 -906 -43 -24 6 0
-858 -863 -906 -43 -135 6 0
-859 -861 -906 -140 -11 6 0
-859 -862 -906 -140 -24 6 0
-859 -863 -906 -140 -135 6 0
-860 -861 -906 -187 -11 6 0
-860 -862 -906 -187 -24 6 0
-860 -863 -906 -187 -135 6 0
-858 -861 -907 -43 -11 8 0
-858 -862 -907 -43 -24 8 0
-858 -863 -907 -43 -135 8 0
-859 -861 -907 -140 -11 8 0
-859 -862 -907 -140 -24 8 0
-859 -863 -907 -140 -135 8 0
-860 -861 -907 -187 -11 8 0
-860 -862 -907 -187 -24 8 0
-860 -863 -907 -187 -135 8 0
-858 -861 -908 -43 -11 149 0
-858 -862 -908 -43 -24 149 0
-858 -863 -908 -43 -135 149 0
-859 -861 -908 -140 -11 149 0
-859 -862 -908 -140 -24 149 0
-859 -863 -908 -140 -135 149 0
-860 -861 -908 -187 -11 149 0
-860 -862 -908 -187 -24 149 0
-860 -863 -908 -187 -135 149 0
-861 -864 -909 -11 -26 63 0
-861 -865 -909 -11 -66 63 0
-861 -866 -909 -11 -161 63 0
-862 -864 -909 -24 -26 63 0
-862 -865 -909 -24 -66 63 0
-862 -866 -909 -24 -161 63 0
-863 -864 -909 -135 -26 63 0
-863 -865 -909 -135 -66 63 0
-863 -866 -909 -135 -161 63 0
-861 -864 -910 -11 -26 156 0
-861 -865 -910 -11 -66 156 0
-861 -866 -910 -11 -161 156 0
-862 -864 -910 -24 -26 156 0
-862 -865 -910 -24 -66 156 0
-862 -866 -910 -24 -161 156 0
-863 -864 -910 -135 -26 156 0
-863 -865 -910 -135 -66 156 0
-863 -866 -910 -135 -161 156 0
-861 -864 -911 -11 -26 161 0
-861 -865 -911 -11 -66 161 0
-862 -864 -911 -24 -26 161 0
-862 -865 -911 -24 -66 161 0
-863 -864 -911 -135 -26 161 0
-863 -865 -911 -135 -66 161 0
-864 -867 -912 -26 -22 45 0
-864 -868 -912 -26 -69 45 0
-864 -869 -912 -26 -189 45 0
-865 -867 -912 -66 -22 45 0
-865 -868 -912 -66 -69 45 0
-865 -869 -912 -66 -189 45 0
-866 -867 -912 -161 -22 45 0
-866 -868 -912 -161 -69 45 0
-866 -869 -912 -161 -189 45 0
-864 -867 -913 -26 -22 53 0
-864 -868 -913 -26 -69 53 0
-864 -869 -913 -26 -189 53 0
-865 -867 -913 -66 -22 53 0
-865 -868 -913 -66 -69 53 0
-865 -869 -913 -66 -189 53 0
-866 -867 -913 -161 -22 53 0
-866 -868 -913 -161 -69 53 0
-866 -869 -913 -161 -189 53 0
-864 -867 -914 -26 -22 67 0
-864 -868 -914 -26 -69 67 0
-864 -869 -914 -26 -189 67 0
-865 -867 -914 -66 -22 67 0
-865 -868 -914 -66 -69 67 0
-865 -869 -914 -66 -189 67 0
-866 -867 -914 -161 -22 67 0
-866 -868 -914 -161 -69 67 0
-866 -869 -914 -161 -189 67 0
-867 -870 -915 -22 -36 38 0
-867 -871 -915 -22 -158 38 0
-867 -872 -915 -22 -199 38 0
-868 -870 -915 -69 -36 38 0
-868 -871 -915 -69 -158 38 0
-868 -872 -915 -69 -199 38 0
-869 -870 -915 -189 -36 38 0
-869 -871 -915 -189 -158 38 0
-869 -872 -915 -189 -199 38 0
-867 -870 -916 -22 -36 73 0
-867 -871 -916 -22 -158 73 0
-867 -872 -916 -22 -199 73 0
-868 -870 -916 -69 -36 73 0
-868 -871 -916 -69 -158 73 0
-868 -872 -916 -69 -199 73 0
-869 -870 -916 -189 -36 73 0
-869 -871 -916 -189 -158 73 0
-869 -872 -916 -189 -199 73 0
-867 -870 -917 -22 -36 139 0
-867 -871 -917 -22 -158 139 0
-867 -872 -917 -22 -199 139 0
-868 -870 -917 -69 -36 139 0
-868 -871 -917 -69 -158 139 0
-868 -872 -917 -69 -199 139 0
-869 -870 -917 -189 -36 139 0
-869 -871 -917 -189 -158 139 0
-869 -872 -917 -189 -199 139 0
-870 -873 -918 -36 -169 52 0
-870 -874 -918 -36 -176 52 0
-870 -875 -918 -36 -180 52 0
-871 -873 -918 -158 -169 52 0
-871 -874 -918 -158 -176 52 0
-871 -875 -918 -158 -180 52 0
-872 -873 -918 -199 -169 52 0
-872 -874 -918 -199 -176 52 0
-872 -875 -918 -199 -180 52 0
-870 -873 -919 -36 -169 70 0
-870 -874 -919 -36 -176 70 0
-870 -875 -919 -36 -180 70 0
-871 -873 -919 -158 -169 70 0
-871 -874 -919 -158 -176 70 0
-871 -875 -919 -158 -180 70 0
-872 -873 -919 -199 -169 70 0
-872 -874 -919 -199 -176 70 0
-872 -875 -919 -199 -180 70 0
-870 -873 -920 -36 -169 80 0
-870 -874 -920 -36 -176 80 0
-870 -875 -920 -36 -180 80 0
-871 -873 -920 -158 -169 80 0
-871 -874 -920 -158 -176 80 0
-871 -875 -920 -158 -180 80 0
-872 -873 -920 -199 -169 80 0
-872 -874 -920 -199 -176 80 0
-872 -875 -920 -199 -180 80 0
-873 -876 -921 -169 -21 65 0
-873 -877 -921 -169 -62 65 0
-873 -878 -921 -169 -114 65 0
-874 -876 -921 -176 -21 65 0
-874 -877 -921 -176 -62 65 0
-874 -878 -921 -176 -114 65 0
-875 -876 -921 -180 -21 65 0
-875 -877 -921 -180 -62 65 0
-875 -878 -921 -180 -114 65 0
-873 -876 -922 -169 -21 150 0
-873 -877 -922 -169 -62 150 0
-873 -878 -922 -169 -114 150 0
-874 -876 -922 -176 -21 150 0
-874 -877 -922 -176 -62 150 0
-874 -878 -922 -176 -114 150 0
-875 -876 -922 -180 -21 150 0
-875 -877 -922 -180 -62 150 0
-875 -878 -922 -180 -114 150 0
-873 -876 -923 -169 -21 194 0
-873 -877 -923 -169 -62 194 0
-873 -878 -923 -169 -114 194 0
-874 -876 -923 -176 -21 194 0
-874 -877 -923 -176 -62 194 0
-874 -878 -923 -176 -114 194 0
-875 -876 -923 -180 -21 194 0
-875 -877 -923 -180 -62 194 0
-875 -878 -923 -180 -114 194 0
-876 -879 -924 -21 -98 44 0
-876 -880 -924 -21 -102 44 0
-876 -881 -924 -21 -111 44 0
-877 -879 -924 -62 -98 44 0
-877 -880 -924 -62 -102 44 0
-877 -881 -924 -62 -111 44 0
-878 -879 -924 -114 -98 44 0
-878 -880 -924 -114 -102 44 0
-878 -881 -924 -114 -111 44 0
-876 -879 -925 -21 -98 115 0
-876 -880 -925 -21 -102 115 0
-876 -881 -925 -21 -111 115 0
-877 -879 -925 -62 -98 115 0
-877 -880 -925 -62 -102 115 0
-877 -881 -925 -62 -111 115 0
-878 -879 -925 -114 -98 115 0
-878 -880 -925 -114 -102 115 0
-878 -881 -925 -114 -111 115 0
-876 -879 -926 -21 -98 175 0
-876 -880 -926 -21 -102 175 0
-876 -881 -926 -21 -111 175 0
-877 -879 -926 -62 -98 175 0
-877 -880 -926 -62 -102 175 0
-877 -881 -926 -62 -111 175 0
-878 -879 -926 -114 -98 175 0
-878 -880 -926 -114 -102 175 0
-878 -881 -926 -114 -111 175 0
-879 -882 -927 -98 -43 92 0
-879 -883 -927 -98 -84 92 0
-879 -884 -927 -98 -113 92 0
-880 -882 -927 -102 -43 92 0
-880 -883 -927 -102 -84 92 0
-880 -884 -927 -102 -113 92 0
-881 -882 -927 -111 -43 92 0
-881 -883 -927 -111 -84 92 0
-881 -884 -927 -111 -113 92 0
-879 -882 -928 -98 -43 126 0
-879 -883 -928 -98 -84 126 0
-879 -884 -928 -98 -113 126 0
-880 -882 -928 -102 -43 126 0
-880 -883 -928 -102 -84 126 0
-880 -884 -928 -102 -113 126 0
-881 -882 -928 -111 -43 126 0
-881 -883 -928 -111 -84 126 0
-881 -884 -928 -111 -113 126 0
-879 -882 -929 -98 -43 140 0
-879 -883 -929 -98 -84 140 0
-879 -884 -929 -98 -113 140 0
-880 -882 -929 -102 -43 140 0
-880 -883 -929 -102 -84 140 0
-880 -884 -929 -102 -113 140 0
-881 -882 -929 -111 -43 140 0
-881 -883 -929 -111 -84 140 0
-881 -884 -929 -111 -113 140 0
-882 -885 -930 -43 -33 32 0
-882 -886 -930 -43 -125 32 0
-882 -887 -930 -43 -160 32 0
-883 -885 -930 -84 -33 32 0
-883 -886 -930 -84 -125 32 0
-883 -887 -930 -84 -160 32 0
-884 -885 -930 -113 -33 32 0
-884 -886 -930 -113 -125 32 0
-884 -887 -930 -113 -160 32 0
-882 -885 -931 -43 -33 108 0
-882 -886 -931 -43 -125 108 0
-882 -887 -931 -43 -160 108 0
-883 -885 -931 -84 -33 108 0
-883 -886 -931 -84 -125 108 0
-883 -887 -931 -84 -160 108 0
-884 -885 -931 -113 -33 108 0
-884 -886 -931 -113 -125 108 0
-884 -887 -931 -113 -160 108 0
-882 -885 -932 -43 -33 197 0
-882 -886 -932 -43 -125 197 0
-882 -887 -932 -43 -160 197 0
-883 -885 -932 -84 -33 197 0
-883 -886 -932 -84 -125 197 0
-883 -887 -932 -84 -160 197 0
-884 -885 -932 -113 -33 197 0
-884 -886 -932 -113 -125 197 0
-884 -887 -932 -113 -160 197 0
-885 -888 -933 -33 -31 54 0
-885 -889 -933 -33 -55 54 0
-885 -890 -933 -33 -111 54 0
-886 -888 -933 -125 -31 54 0
-886 -889 -933 -125 -55 54 0
-886 -890 -933 -125 -111 54 0
-887 -888 -933 -160 -31 54 0
-887 -889 -933 -160 -55 54 0
-887 -890 -933 -160 -111 54 0
-885 -888 -934 -33 -31 99 0
-885 -889 -934 -33 -55 99 0
-885 -890 -934 -33 -111 99 0
-886 -888 -934 -125 -31 99 0
-886 -889 -934 -125 -55 99 0
-886 -890 -934 -125 -111 99 0
-887 -888 -934 -160 -31 99 0
-887 -889 -934 -160 -55 99 0
-887 -890 -934 -160 -111 99 0
-885 -888 -935 -33 -31 147 0
-885 -889 -935 -33 -55 147 0
-885 -890 -935 -33 -111 147 0
-886 -888 -935 -125 -31 147 0
-886 -889 -935 -125 -55 147 0
-886 -890 -935 -125 -111 147 0
-887 -888 -935 -160 -31 147 0
-887 -889 -935 -160 -55 147 0
-887 -890 -935 -160 -111 147 0
-888 -891 -936 -31 -105 28 0
-888 -892 -936 -31 -137 28 0
-888 -893 -936 -31 -154 28 0
-889 -891 -936 -55 -105 28 0
-889 -892 -936 -55 -137 28 0
-889 -893 -936 -55 -154 28 0
-890 -891 -936 -111 -105 28 0
-890 -892 -936 -111 -137 28 0
-890 -893 -936 -111 -154 28 0
-888 -891 -937 -31 -105 53 0
-888 -892 -937 -31 -137 53 0
-888 -893 -937 -31 -154 53 0
-889 -891 -937 -55 -105 53 0
-889 -892 -937 -55 -137 53 0
-889 -893 -937 -55 -154 53 0
-890 -891 -937 -111 -105 53 0
-890 -892 -937 -111 -137 53 0
-890 -893 -937 -111 -154 53 0
-888 -891 -938 -31 -105 73 0
-888 -892 -938 -31 -137 73 0
-888 -893 -938 -31 -154 73 0
-889 -891 -938 -55 -105 73 0
-889 -892 -938 -55 -137 73 0
-889 -893 -938 -55 -154 73 0
-890 -891 -938 -111 -105 73 0
-890 -892 -938 -111 -137 73 0
-890 -893 -938 -111 -154 73 0
-894 -897 -939 -31 -64 7 0
-894 -898 -939 -31 -72 7 0
-894 -899 -939 -31 -97 7 0
-895 -897 -939 -76 -64 7 0
-895 -898 -939 -76 -72 7 0
-895 -899 -939 -76 -97 7 0
-896 -897 -939 -170 -64 7 0
-896 -898 -939 -170 -72 7 0
-896 -899 -939 -170 -97 7 0
-895 -897 -940 -76 -64 31 0
-895 -898 -940 -76 -72 31 0
-895 -899 -940 -76 -97 31 0
-896 -897 -940 -170 -64 31 0
-896 -898 -940 -170 -72 31 0
-896 -899 -940 -170 -97 31 0
-894 -897 -941 -31 -64 146 0
-894 -898 -941 -31 -72 146 0
-894 -899 -941 -31 -97 146 0
-895 -897 -941 -76 -64 146 0
-895 -898 -941 -76 -72 146 0
-895 -899 -941 -76 -97 146 0
-896 -897 -941 -170 -64 146 0
-896 -898 -941 -170 -72 146 0
-896 -899 -941 -170 -97 146 0
-897 -900 -942 -64 -2 4 0
-897 -901 -942 -64 -144 4 0
-897 -902 -942 -64 -192 4 0
-898 -900 -942 -72 -2 4 0
-898 -901 -942 -72 -144 4 0
-898 -902 -942 -72 -192 4 0
-899 -900 -942 -97 -2 4 0
-899 -901 -942 -97 -144 4 0
-899 -902 -942 -97 -192 4 0
-897 -900 -943 -64 -2 140 0
-897 -901 -943 -64 -144 140 0
-897 -902 -943 -64 -192 140 0
-898 -900 -943 -72 -2 140 0
-898 -901 -943 -72 -144 140 0
-898 -902 -943 -72 -192 140 0
-899 -900 -943 -97 -2 140 0
-899 -901 -943 -97 -144 140 0
-899 -902 -943 -97 -192 140 0
-897 -900 -944 -64 -2 192 0
-897 -901 -944 -64 -144 192 0
-898 -900 -944 -72 -2 192 0
-898 -901 -944 -72 -144 192 0
-899 -900 -944 -97 -2 192 0
-899 -901 -944 -97 -144 192 0
-900 -903 -945 -2 -49 76 0
-900 -904 -945 -2 -113 76 0
-900 -905 -945 -2 -136 76 0
-901 -903 -945 -144 -49 76 0
-901 -904 -945 -144 -113 76 0
-901 -905 -945 -144 -136 76 0
-902 -903 -945 -192 -49 76 0
-902 -904 -945 -192 -113 76 0
-902 -905 -945 -192 -136 76 0
-900 -903 -946 -2 -49 173 0
-900 -904 -946 -2 -113 173 0
-900 -905 -946 -2 -136 173 0
-901 -903 -946 -144 -49 173 0
-901 -904 -946 -144 -113 173 0
-901 -905 -946 -144 -136 173 0
-902 -903 -946 -192 -49 173 0
-902 -904 -946 -192 -113 173 0
-902 -905 -946 -192 -136 173 0
-900 -903 -947 -2 -49 195 0
-900 -904 -947 -2 -113 195 0
-900 -905 -947 -2 -136 195 0
-901 -903 -947 -144 -49 195 0
-901 -904 -947 -144 -113 195 0
-901 -905 -947 -144 -136 195 0
-902 -903 -947 -192 -49 195 0
-902 -904 -947 -192 -113 195 0
-902 -905 -947 -192 -136 195 0
-903 -906 -948 -49 -6 35 0
-903 -907 -948 -49 -8 35 0
-903 -908 -948 -49 -149 35 0
-904 -906 -948 -113 -6 35 0
-904 -907 -948 -113 -8 35 0
-904 -908 -948 -113 -149 35 0
-905 -906 -948 -136 -6 35 0
-905 -907 -948 -136 -8 35 0
-905 -908 -948 -136 -149 35 0
-903 -906 -949 -49 -6 167 0
-903 -907 -949 -49 -8 167 0
-903 -908 -949 -49 -149 167 0
-904 -906 -949 -113 -6 167 0
-904 -907 -949 -113 -8 167 0
-904 -908 -949 -113 -149 167 0
-905 -906 -949 -136 -6 167 0
-905 -907 -949 -136 -8 167 0
-905 -908 -949 -136 -149 167 0
-903 -906 -950 -49 -6 186 0
-903 -907 -950 -49 -8 186 0
-903 -908 -950 -49 -149 186 0
-904 -906 -950 -113 -6 186 0
-904 -907 -950 -113 -8 186 0
-904 -908 -950 -113 -149 186 0
-905 -906 -950 -136 -6 186 0
-905 -907 -950 -136 -8 186 0
-905 -908 -950 -136 -149 186 0
-906 -909 -951 -6 -63 20 0
-906 -910 -951 -6 -156 20 0
-906 -911 -951 -6 -161 20 0
-907 -909 -951 -8 -63 20 0
-907 -910 -951 -8 -156 20 0
-907 -911 -951 -8 -161 20 0
-908 -909 -951 -149 -63 20 0
-908 -910 -951 -149 -156 20 0
-908 -911 -951 -149 -161 20 0
-906 -909 -952 -6 -63 96 0
-906 -910 -952 -6 -156 96 0
-906 -911 -952 -6 -161 96 0
-907 -909 -952 -8 -63 96 0
-907 -910 -952 -8 -156 96 0
-907 -911 -952 -8 -161 96 0
-908 -909 -952 -149 -63 96 0
-908 -910 -952 -149 -156 96 0
-908 -911 -952 -149 -161 96 0
-906 -909 -953 -6 -63 129 0
-906 -910 -953 -6 -156 129 0
-906 -911 -953 -6 -161 129 0
-907 -909 -953 -8 -63 129 0
-907 -910 -953 -8 -156 129 0
-907 -911 -953 -8 -161 129 0
-908 -909 -953 -149 -63 129 0
-908 -910 -953 -149 -156 129 0
-908 -911 -953 -149 -161 129 0
-909 -912 -954 -63 -45 80 0
-909 -913 -954 -63 -53 80 0
-909 -914 -954 -63 -67 80 0
-910 -912 -954 -156 -45 80 0
-910 -913 -954 -156 -53 80 0
-910 -914 -954 -156 -67 80 0
-911 -912 -954 -161 -45 80 0
-911 -913 -954 -161 -53 80 0
-911 -914 -954 -161 -67 80 0
-909 -912 -955 -63 -45 112 0
-909 -913 -955 -63 -53 112 0
-909 -914 -955 -63 -67 112 0
-910 -912 -955 -156 -45 112 0
-910 -913 -955 -156 -53 112 0
-910 -914 -955 -156 -67 112 0
-911 -912 -955 -161 -45 112 0
-911 -913 -955 -161 -53 112 0
-911 -914 -955 -161 -67 112 0
-909 -912 -956 -63 -45 147 0
-909 -913 -956 -63 -53 147 0
-909 -914 -956 -63 -67 147 0
-910 -912 -956 -156 -45 147 0
-910 -913 -956 -156 -53 147 0
-910 -914 -956 -156 -67 147 0
-911 -912 -956 -161 -45 147 0
-911 -913 -956 -161 -53 147 0
-911 -914 -956 -161 -67 147 0
-912 -915 -957 -45 -38 92 0
-912 -916 -957 -45 -73 92 0
-912 -917 -957 -45 -139 92 0
-913 -915 -957 -53 -38 92 0
-913 -916 -957 -53 -73 92 0
-913 -917 -957 -53 -139 92 0
-914 -915 -957 -67 -38 92 0
-914 -916 -957 -67 -73 92 0
-914 -917 -957 -67 -139 92 0
-912 -915 -958 -45 -38 129 0
-912 -916 -958 -45 -73 129 0
-912 -917 -958 -45 -139 129 0
-913 -915 -958 -53 -38 129 0
-913 -916 -958 -53 -73 129 0
-913 -917 -958 -53 -139 129 0
-914 -915 -958 -67 -38 129 0
-914 -916 -958 -67 -73 129 0
-914 -917 -958 -67 -139 129 0
-912 -915 -959 -45 -38 174 0
-912 -916 -959 -45 -73 174 0
-912 -917 -959 -45 -139 174 0
-913 -915 -959 -53 -38 174 0
-913 -916 -959 -53 -73 174 0
-913 -917 -959 -53 -139 174 0
-914 -915 -959 -67 -38 174 0
-914 -916 -959 -67 -73 174 0
-914 -917 -959 -67 -139 174 0
-915 -918 -960 -38 -52 83 0
-915 -919 -960 -38 -70 83 0
-915 -920 -960 -38 -80 83 0
-916 -918 -960 -73 -52 83 0
-916 -919 -960 -73 -70 83 0
-916 -920 -960 -73 -80 83 0
-917 -918 -960 -139 -52 83 0
-917 -919 -960 -139 -70 83 0
-917 -920 -960 -139 -80 83 0
-915 -918 -961 -38 -52 136 0
-915 -919 -961 -38 -70 136 0
-915 -920 -961 -38 -80 136 0
-916 -918 -961 -73 -52 136 0
-916 -919 -961 -73 -70 136 0
-916 -920 -961 -73 -80 136 0
-917 -918 -961 -139 -52 136 0
-917 -919 -961 -139 -70 136 0
-917 -920 -961 -139 -80 136 0
-915 -918 -962 -38 -52 195 0
-915 -919 -962 -38 -70 195 0
-915 -920 -962 -38 -80 195 0
-916 -918 -962 -73 -52 195 0
-916 -919 -962 -73 -70 195 0
-916 -920 -962 -73 -80 195 0
-917 -918 -962 -139 -52 195 0
-917 -919 -962 -139 -70 195 0
-917 -920 -962 -139 -80 195 0
-918 -921 -963 -52 -65 1 0
-918 -922 -963 -52 -150 1 0
-918 -923 -963 -52 -194 1 0
-919 -921 -963 -70 -65 1 0
-919 -922 -963 -70 -150 1 0
-919 -923 -963 -70 -194 1 0
-920 -921 -963 -80 -65 1 0
-920 -922 -963 -80 -150 1 0
-920 -923 -963 -80 -194 1 0
-918 -921 -964 -52 -65 32 0
-918 -922 -964 -52 -150 32 0
-918 -923 -964 -52 -194 32 0
-919 -921 -964 -70 -65 32 0
-919 -922 -964 -70 -150 32 0
-919 -923 -964 -70 -194 32 0
-920 -921 -964 -80 -65 32 0
-920 -922 -964 -80 -150 32 0
-920 -923 -964 -80 -194 32 0
-918 -921 -965 -52 -65 114 0
-918 -922 -965 -52 -150 114 0
-918 -923 -965 -52 -194 114 0
-919 -921 -965 -70 -65 114 0
-919 -922 -965 -70 -150 114 0
-919 -923 -965 -70 -194 114 0
-920 -921 -965 -80 -65 114 0
-920 -922 -965 -80 -150 114 0
-920 -923 -965 -80 -194 114 0
-921 -924 -966 -65 -44 90 0
-921 -925 -966 -65 -115 90 0
-921 -926 -966 -65 -175 90 0
-922 -924 -966 -150 -44 90 0
-922 -925 -966 -150 -115 90 0
-922 -926 -966 -150 -175 90 0
-923 -924 -966 -194 -44 90 0
-923 -925 -966 -194 -115 90 0
-923 -926 -966 -194 -175 90 0
-921 -924 -967 -65 -44 116 0
-921 -925 -967 -65 -115 116 0
-921 -926 -967 -65 -175 116 0
-922 -924 -967 -150 -44 116 0
-922 -925 -967 -150 -115 116 0
-922 -926 -967 -150 -175 116 0
-923 -924 -967 -194 -44 116 0
-923 -925 -967 -194 -115 116 0
-923 -926 -967 -194 -175 116 0
-921 -924 -968 -65 -44 184 0
-921 -925 -968 -65 -115 184 0
-921 -926 -968 -65 -175 184 0
-922 -924 -968 -150 -44 184 0
-922 -925 -968 -150 -115 184 0
-922 -926 -968 -150 -175 184 0
-923 -924 -968 -194 -44 184 0
-923 -925 -968 -194 -115 184 0
-923 -926 -968 -194 -175 184 0
-924 -927 -969 -44 -92 79 0
-924 -928 -969 -44 -126 79 0
-924 -929 -969 -44 -140 79 0
-925 -927 -969 -115 -92 79 0
-925 -928 -969 -115 -126 79 0
-925 -929 -969 -115 -140 79 0
-926 -927 -969 -175 -92 79 0
-926 -928 -969 -175 -126 79 0
-926 -929 -969 -175 -140 79 0
-924 -927 -970 -44 -92 103 0
-924 -928 -970 -44 -126 103 0
-924 -929 -970 -44 -140 103 0
-925 -927 -970 -115 -92 103 0
-925 -928 -970 -115 -126 103 0
-925 -929 -970 -115 -140 103 0
-926 -927 -970 -175 -92 103 0
-926 -928 -970 -175 -126 103 0
-926 -929 -970 -175 -140 103 0
-924 -927 -971 -44 -92 139 0
-924 -928 -971 -44 -126 139 0
-924 -929 -971 -44 -140 139 0
-925 -927 -971 -115 -92 139 0
-925 -928 -971 -115 -126 139 0
-925 -929 -971 -115 -140 139 0
-926 -927 -971 -175 -92 139 0
-926 -928 -971 -175 -126 139 0
-926 -929 -971 -175 -140 139 0
-927 -930 -972 -92 -32 87 0
-927 -931 -972 -92 -108 87 0
-927 -932 -972 -92 -197 87 0
-928 -930 -972 -126 -32 87 0
-928 -931 -972 -126 -108 87 0
-928 -932 -972 -126 -197 87 0
-929 -930 -972 -140 -32 87 0
-929 -931 -972 -140 -108 87 0
-929 -932 -972 -140 -197 87 0
-927 -930 -973 -92 -32 175 0
-927 -931 -973 -92 -108 175 0
-927 -932 -973 -92 -197 175 0
-928 -930 -973 -126 -32 175 0
-928 -931 -973 -126 -108 175 0
-928 -932 -973 -126 -197 175 0
-929 -930 -973 -140 -32 175 0
-929 -931 -973 -140 -108 175 0
-929 -932 -973 -140 -197 175 0
-927 -930 -974 -92 -32 188 0
-927 -931 -974 -92 -108 188 0
-927 -932 -974 -92 -197 188 0
-928 -930 -974 -126 -32 188 0
-928 -931 -974 -126 -108 188 0
-928 -932 -974 -126 -197 188 0
-929 -930 -974 -140 -32 188 0
-929 -931 -974 -140 -108 188 0
-929 -932 -974 -140 -197 188 0
-930 -933 -975 -32 -54 29 0
-930 -934 -975 -32 -99 29 0
-930 -935 -975 -32 -147 29 0
-931 -933 -975 -108 -54 29 0
-931 -934 -975 -108 -99 29 0
-931 -935 -975 -108 -147 29 0
-932 -933 -975 -197 -54 29 0
-932 -934 -975 -197 -99 29 0
-932 -935 -975 -197 -147 29 0
-930 -933 -976 -32 -54 127 0
-930 -934 -976 -32 -99 127 0
-930 -935 -976 -32 -147 127 0
-931 -933 -976 -108 -54 127 0
-931 -934 -976 -108 -99 127 0
-931 -935 -976 -108 -147 127 0
-932 -933 -976 -197 -54 127 0
-932 -934 -976 -197 -99 127 0
-932 -935 -976 -197 -147 127 0
-930 -933 -977 -32 -54 147 0
-930 -934 -977 -32 -99 147 0
-931 -933 -977 -108 -54 147 0
-931 -934 -977 -108 -99 147 0
-932 -933 -977 -197 -54 147 0
-932 -934 -977 -197 -99 147 0
-933 -936 -978 -54 -28 97 0
-933 -937 -978 -54 -53 97 0
-933 -938 -978 -54 -73 97 0
-934 -936 -978 -99 -28 97 0
-934 -937 -978 -99 -53 97 0
-934 -938 -978 -99 -73 97 0
-935 -936 -978 -147 -28 97 0
-935 -937 -978 -147 -53 97 0
-935 -938 -978 -147 -73 97 0
-933 -936 -979 -54 -28 98 0
-933 -937 -979 -54 -53 98 0
-933 -938 -979 -54 -73 98 0
-934 -936 -979 -99 -28 98 0
-934 -937 -979 -99 -53 98 0
-934 -938 -979 -99 -73 98 0
-935 -936 -979 -147 -28 98 0
-935 -937 -979 -147 -53 98 0
-935 -938 -979 -147 -73 98 0
-933 -936 -980 -54 -28 166 0
-933 -937 -980 -54 -53 166 0
-933 -938 -980 -54 -73 166 0
-934 -936 -980 -99 -28 166 0
-934 -937 -980 -99 -53 166 0
-934 -938 -980 -99 -73 166 0
-935 -936 -980 -147 -28 166 0
-935 -937 -980 -147 -53 166 0
-935 -938 -980 -147 -73 166 0
-939 -942 -981 -7 -4 1 0
-939 -943 -981 -7 -140 1 0
-939 -944 -981 -7 -192 1 0
-940 -942 -981 -31 -4 1 0
-940 -943 -981 -31 -140 1 0
-940 -944 -981 -31 -192 1 0
-941 -942 -981 -146 -4 1 0
-941 -943 -981 -146 -140 1 0
-941 -944 -981 -146 -192 1 0
-939 -942 -982 -7 -4 53 0
-939 -943 -982 -7 -140 53 0
-939 -944 -982 -7 -192 53 0
-940 -942 -982 -31 -4 53 0
-940 -943 -982 -31 -140 53 0
-940 -944 -982 -31 -192 53 0
-941 -942 -982 -146 -4 53 0
-941 -943 -982 -146 -140 53 0
-941 -944 -982 -146 -192 53 0
-939 -942 -983 -7 -4 143 0
-939 -943 -983 -7 -140 143 0
-939 -944 -983 -7 -192 143 0
-940 -942 -983 -31 -4 143 0
-940 -943 -983 -31 -140 143 0
-940 -944 -983 -31 -192 143 0
-941 -942 -983 -146 -4 143 0
-941 -943 -983 -146 -140 143 0
-941 -944 -983 -146 -192 143 0
-942 -945 -984 -4 -76 72 0
-942 -946 -984 -4 -173 72 0
-942 -947 -984 -4 -195 72 0
-943 -945 -984 -140 -76 72 0
-943 -946 -984 -140 -173 72 0
-943 -947 -984 -140 -195 72 0
-944 -945 -984 -192 -76 72 0
-944 -946 -984 -192 -173 72 0
-944 -947 -984 -192 -195 72 0
-942 -945 -985 -4 -76 154 0
-942 -946 -985 -4 -173 154 0
-942 -947 -985 -4 -195 154 0
-943 -945 -985 -140 -76 154 0
-943 -946 -985 -140 -173 154 0
-943 -947 -985 -140 -195 154 0
-944 -945 -985 -192 -76 154 0
-944 -946 -985 -192 -173 154 0
-944 -947 -985 -192 -195 154 0
-942 -945 -986 -4 -76 163 0
-942 -946 -986 -4 -173 163 0
-942 -947 -986 -4 -195 163 0
-943 -945 -986 -140 -76 163 0
-943 -946 -986 -140 -173 163 0
-943 -947 -986 -140 -195 163 0
-944 -945 -986 -192 -76 163 0
-944 -946 -986 -192 -173 163 0
-944 -947 -986 -192 -195 163 0
-945 -948 -987 -76 -35 185 0
-945 -949 -987 -76 -167 185 0
-945 -950 -987 -76 -186 185 0
-946 -948 -987 -173 -35 185 0
-946 -949 -987 -173 -167 185 0
-946 -950 -987 -173 -186 185 0
-947 -948 -987 -195 -35 185 0
-947 -949 -987 -195 -167 185 0
-947 -950 -987 -195 -186 185 0
-945 -948 -988 -76 -35 187 0
-945 -949 -988 -76 -167 187 0
-945 -950 -988 -76 -186 187 0
-946 -948 -988 -173 -35 187 0
-946 -949 -988 -173 -167 187 0
-946 -950 -988 -173 -186 187 0
-947 -948 -988 -195 -35 187 0
-947 -949 -988 -195 -167 187 0
-947 -950 -988 -195 -186 187 0
-945 -948 -989 -76 -35 190 0
-945 -949 -989 -76 -167 190 0
-945 -950 -989 -76 -186 190 0
-946 -948 -989 -173 -35 190 0
-946 -949 -989 -173 -167 190 0
-946 -950 -989 -173 -186 190 0
-947 -948 -989 -195 -35 190 0
-947 -949 -989 -195 -167 190 0
-947 -950 -989 -195 -186 190 0
-948 -951 -990 -35 -20 51 0
-948 -952 -990 -35 -96 51 0
-948 -953 -990 -35 -129 51 0
-949 -951 -990 -167 -20 51 0
-949 -952 -990 -167 -96 51 0
-949 -953 -990 -167 -129 51 0
-950 -951 -990 -186 -20 51 0
-950 -952 -990 -186 -96 51 0
-950 -953 -990 -186 -129 51 0
-948 -951 -991 -35 -20 119 0
-948 -952 -991 -35 -96 119 0
-948 -953 -991 -35 -129 119 0
-949 -951 -991 -167 -20 119 0
-949 -952 -991 -167 -96 119 0
-949 -953 -991 -167 -129 119 0
-950 -951 -991 -186 -20 119 0
-950 -952 -991 -186 -96 119 0
-950 -953 -991 -186 -129 119 0
-948 -951 -992 -35 -20 131 0
-948 -952 -992 -35 -96 131 0
-948 -953 -992 -35 -129 131 0
-949 -951 -992 -167 -20 131 0
-949 -952 -992 -167 -96 131 0
-949 -953 -992 -167 -129 131 0
-950 -951 -992 -186 -20 131 0
-950 -952 -992 -186 -96 131 0
-950 -953 -992 -186 -129 131 0
-951 -954 -993 -20 -80 105 0
-951 -955 -993 -20 -112 105 0
-951 -956 -993 -20 -147 105 0
-952 -954 -993 -96 -80 105 0
-952 -955 -993 -96 -112 105 0
-952 -956 -993 -96 -147 105 0
-953 -954 -993 -129 -80 105 0
-953 -955 -993 -129 -112 105 0
-953 -956 -993 -129 -147 105 0
-951 -954 -994 -20 -80 133 0
-951 -955 -994 -20 -112 133 0
-951 -956 -994 -20 -147 133 0
-952 -954 -994 -96 -80 133 0
-952 -955 -994 -96 -112 133 0
-952 -956 -994 -96 -147 133 0
-953 -954 -994 -129 -80 133 0
-953 -955 -994 -129 -112 133 0
-953 -956 -994 -129 -147 133 0
-951 -954 -995 -20 -80 154 0
-951 -955 -995 -20 -112 154 0
-951 -956 -995 -20 -147 154 0
-952 -954 -995 -96 -80 154 0
-952 -955 -995 -96 -112 154 0
-952 -956 -995 -96 -147 154 0
-953 -954 -995 -129 -80 154 0
-953 -955 -995 -129 -112 154 0
-953 -956 -995 -129 -147 154 0
-954 -957 -996 -80 -92 79 0
-954 -958 -996 -80 -129 79 0
-954 -959 -996 -80 -174 79 0
-955 -957 -996 -112 -92 79 0
-955 -958 -996 -112 -129 79 0
-955 -959 -996 -112 -174 79 0
-956 -957 -996 -147 -92 79 0
-956 -958 -996 -147 -129 79 0
-956 -959 -996 -147 -174 79 0
-954 -957 -997 -80 -92 183 0
-954 -958 -997 -80 -129 183 0
-954 -959 -997 -80 -174 183 0
-955 -957 -997 -112 -92 183 0
-955 -958 -997 -112 -129 183 0
-955 -959 -997 -112 -174 183 0
-956 -957 -997 -147 -92 183 0
-956 -958 -997 -147 -129 183 0
-956 -959 -997 -147 -174 183 0
-954 -957 -998 -80 -92 191 0
-954 -958 -998 -80 -129 191 0
-954 -959 -998 -80 -174 191 0
-955 -957 -998 -112 -92 191 0
-955 -958 -998 -112 -129 191 0
-955 -959 -998 -112 -174 191 0
-956 -957 -998 -147 -92 191 0
-956 -958 -998 -147 -129 191 0
-956 -959 -998 -147 -174 191 0
-957 -960 -999 -92 -83 44 0
-957 -961 -999 -92 -136 44 0
-957 -962 -999 -92 -195 44 0
-958 -960 -999 -129 -83 44 0
-958 -961 -999 -129 -136 44 0
-958 -962 -999 -129 -195 44 0
-959 -960 -999 -174 -83 44 0
-959 -961 -999 -174 -136 44 0
-959 -962 -999 -174 -195 44 0
-957 -960 -1000 -92 -83 116 0
-957 -961 -1000 -92 -136 116 0
-957 -962 -1000 -92 -195 116 0
-958 -960 -1000 -129 -83 116 0
-958 -961 -1000 -129 -136 116 0
-958 -962 -1000 -129 -195 116 0
-959 -960 -1000 -174 -83 116 0
-959 -961 -1000 -174 -136 116 0
-959 -962 -1000 -174 -195 116 0
-957 -960 -1001 -92 -83 180 0
-957 -961 -1001 -92 -136 180 0
-957 -962 -1001 -92 -195 180 0
-958 -960 -1001 -129 -83 180 0
-958 -961 -1001 -129 -136 180 0
-958 -962 -1001 -129 -195 180 0
-959 -960 -1001 -174 -83 180 0
-959 -961 -1001 -174 -136 180 0
-959 -962 -1001 -174 -195 180 0
-960 -963 -1002 -83 -1 136 0
-960 -964 -1002 -83 -32 136 0
-960 -965 -1002 -83 -114 136 0
-962 -963 -1002 -195 -1 136 0
-962 -964 -1002 -195 -32 136 0
-962 -965 -1002 -195 -114 136 0
-960 -963 -1003 -83 -1 159 0
-960 -964 -1003 -83 -32 159 0
-960 -965 -1003 -83 -114 159 0
-961 -963 -1003 -136 -1 159 0
-961 -964 -1003 -136 -32 159 0
-961 -965 -1003 -136 -114 159 0
-962 -963 -1003 -195 -1 159 0
-962 -964 -1003 -195 -32 159 0
-962 -965 -1003 -195 -114 159 0
-960 -963 -1004 -83 -1 172 0
-960 -964 -1004 -83 -32 172 0
-960 -965 -1004 -83 -114 172 0
-961 -963 -1004 -136 -1 172 0
-961 -964 -1004 -136 -32 172 0
-961 -965 -1004 -136 -114 172 0
-962 -963 -1004 -195 -1 172 0
-962 -964 -1004 -195 -32 172 0
-962 -965 -1004 -195 -114 172 0
-963 -966 -1005 -1 -90 51 0
-963 -967 -1005 -1 -116 51 0
-963 -968 -1005 -1 -184 51 0
-964 -966 -1005 -32 -90 51 0
-964 -967 -1005 -32 -116 51 0
-964 -968 -1005 -32 -184 51 0
-965 -966 -1005 -114 -90 51 0
-965 -967 -1005 -114 -116 51 0
-965 -968 -1005 -114 -184 51 0
-963 -966 -1006 -1 -90 93 0
-963 -967 -1006 -1 -116 93 0
-963 -968 -1006 -1 -184 93 0
-964 -966 -1006 -32 -90 93 0
-964 -967 -1006 -32 -116 93 0
-964 -968 -1006 -32 -184 93 0
-965 -966 -1006 -114 -90 93 0
-965 -967 -1006 -114 -116 93 0
-965 -968 -1006 -114 -184 93 0
-963 -966 -1007 -1 -90 135 0
-963 -967 -1007 -1 -116 135 0
-963 -968 -1007 -1 -184 135 0
-964 -966 -1007 -32 -90 135 0
-964 -967 -1007 -32 -116 135 0
-964 -968 -1007 -32 -184 135 0
-965 -966 -1007 -114 -90 135 0
-965 -967 -1007 -114 -116 135 0
-965 -968 -1007 -114 -184 135 0
-966 -969 -1008 -90 -79 1 0
-966 -970 -1008 -90 -103 1 0
-966 -971 -1008 -90 -139 1 0
-967 -969 -1008 -116 -79 1 0
-967 -970 -1008 -116 -103 1 0
-967 -971 -1008 -116 -139 1 0
-968 -969 -1008 -184 -79 1 0
-968 -970 -1008 -184 -103 1 0
-968 -971 -1008 -184 -139 1 0
-966 -969 -1009 -90 -79 100 0
-966 -970 -1009 -90 -103 100 0
-966 -971 -1009 -90 -139 100 0
-967 -969 -1009 -116 -79 100 0
-967 -970 -1009 -116 -103 100 0
-967 -971 -1009 -116 -139 100 0
-968 -969 -1009 -184 -79 100 0
-968 -970 -1009 -184 -103 100 0
-968 -971 -1009 -184 -139 100 0
-966 -969 -1010 -90 -79 174 0
-966 -970 -1010 -90 -103 174 0
-966 -971 -1010 -90 -139 174 0
-967 -969 -1010 -116 -79 174 0
-967 -970 -1010 -116 -103 174 0
-967 -971 -1010 -116 -139 174 0
-968 -969 -1010 -184 -79 174 0
-968 -970 -1010 -184 -103 174 0
-968 -971 -1010 -184 -139 174 0
-969 -972 -1011 -79 -87 104 0
-969 -973 -1011 -79 -175 104 0
-969 -974 -1011 -79 -188 104 0
-970 -972 -1011 -103 -87 104 0
-970 -973 -1011 -103 -175 104 0
-970 -974 -1011 -103 -188 104 0
-971 -972 -1011 -139 -87 104 0
-971 -973 -1011 -139 -175 104 0
-971 -974 -1011 -139 -188 104 0
-969 -972 -1012 -79 -87 110 0
-969 -973 -1012 -79 -175 110 0
-969 -974 -1012 -79 -188 110 0
-970 -972 -1012 -103 -87 110 0
-970 -973 -1012 -103 -175 110 0
-970 -974 -1012 -103 -188 110 0
-971 -972 -1012 -139 -87 110 0
-971 -973 -1012 -139 -175 110 0
-971 -974 -1012 -139 -188 110 0
-969 -972 -1013 -79 -87 149 0
-969 -973 -1013 -79 -175 149 0
-969 -974 -1013 -79 -188 149 0
-970 -972 -1013 -103 -87 149 0
-970 -973 -1013 -103 -175 149 0
-970 -974 -1013 -103 -188 149 0
-971 -972 -1013 -139 -87 149 0
-971 -973 -1013 -139 -175 149 0
-971 -974 -1013 -139 -188 149 0
-973 -975 -1014 -175 -29 87 0
-973 -976 -1014 -175 -127 87 0
-973 -977 -1014 -175 -147 87 0
-974 -975 -1014 -188 -29 87 0
-974 -976 -1014 -188 -127 87 0
-974 -977 -1014 -188 -147 87 0
-972 -975 -1015 -87 -29 150 0
-972 -976 -1015 -87 -127 150 0
-972 -977 -1015 -87 -147 150 0
-973 -975 -1015 -175 -29 150 0
-973 -976 -1015 -175 -127 150 0
-973 -977 -1015 -175 -147 150 0
-974 -975 -1015 -188 -29 150 0
-974 -976 -1015 -188 -127 150 0
-974 -977 -1015 -188 -147 150 0
-972 -975 -1016 -87 -29 160 0
-972 -976 -1016 -87 -127 160 0
-972 -977 -1016 -87 -147 160 0
-973 -975 -1016 -175 -29 160 0
-973 -976 -1016 -175 -127 160 0
-973 -977 -1016 -175 -147 160 0
-974 -975 -1016 -188 -29 160 0
-974 -976 -1016 -188 -127 160 0
-974 -977 -1016 -188 -147 160 0
-975 -978 -1017 -29 -97 180 0
-975 -979 -1017 -29 -98 180 0
-975 -980 -1017 -29 -166 180 0
-976 -978 -1017 -127 -97 180 0
-976 -979 -1017 -127 -98 180 0
-976 -980 -1017 -127 -166 180 0
-977 -978 -1017 -147 -97 180 0
-977 -979 -1017 -147 -98 180 0
-977 -980 -1017 -147 -166 180 0
-975 -978 -1018 -29 -97 188 0
-975 -979 -1018 -29 -98 188 0
-975 -980 -1018 -29 -166 188 0
-976 -978 -1018 -127 -97 188 0
-976 -979 -1018 -127 -98 188 0
-976 -980 -1018 -127 -166 188 0
-977 -978 -1018 -147 -97 188 0
-977 -979 -1018 -147 -98 188 0
-977 -980 -1018 -147 -166 188 0
-975 -978 -1019 -29 -97 192 0
-975 -979 -1019 -29 -98 192 0
-975 -980 -1019 -29 -166 192 0
-976 -978 -1019 -127 -97 192 0
-976 -979 -1019 -127 -98 192 0
-976 -980 -1019 -127 -166 192 0
-977 -978 -1019 -147 -97 192 0
-977 -979 -1019 -147 -98 192 0
-977 -980 -1019 -147 -166 192 0
-981 -984 -1020 -1 -72 18 0
-981 -985 -1020 -1 -154 18 0
-981 -986 -1020 -1 -163 18 0
-982 -984 -1020 -53 -72 18 0
-982 -985 -1020 -53 -154 18 0
-982 -986 -1020 -53 -163 18 0
-983 -984 -1020 -143 -72 18 0
-983 -985 -1020 -143 -154 18 0
-983 -986 -1020 -143 -163 18 0
-981 -984 -1021 -1 -72 127 0
-981 -985 -1021 -1 -154 127 0
-981 -986 -1021 -1 -163 127 0
-982 -984 -1021 -53 -72 127 0
-982 -985 -1021 -53 -154 127 0
-982 -986 -1021 -53 -163 127 0
-983 -984 -1021 -143 -72 127 0
-983 -985 -1021 -143 -154 127 0
-983 -986 -1021 -143 -163 127 0
-981 -984 -1022 -1 -72 191 0
-981 -985 -1022 -1 -154 191 0
-981 -986 -1022 -1 -163 191 0
-982 -984 -1022 -53 -72 191 0
-982 -985 -1022 -53 -154 191 0
-982 -986 -1022 -53 -163 191 0
-983 -984 -1022 -143 -72 191 0
-983 -985 -1022 -143 -154 191 0
-983 -986 -1022 -143 -163 191 0
-984 -987 -1023 -72 -185 64 0
-984 -988 -1023 -72 -187 64 0
-984 -989 -1023 -72 -190 64 0
-985 -987 -1023 -154 -185 64 0
-985 -988 -1023 -154 -187 64 0
-985 -989 -1023 -154 -190 64 0
-986 -987 -1023 -163 -185 64 0
-986 -988 -1023 -163 -187 64 0
-986 -989 -1023 -163 -190 64 0
-984 -987 -1024 -72 -185 164 0
-984 -988 -1024 -72 -187 164 0
-984 -989 -1024 -72 -190 164 0
-985 -987 -1024 -154 -185 164 0
-985 -988 -1024 -154 -187 164 0
-985 -989 -1024 -154 -190 164 0
-986 -987 -1024 -163 -185 164 0
-986 -988 -1024 -163 -187 164 0
-986 -989 -1024 -163 -190 164 0
-984 -987 -1025 -72 -185 167 0
-984 -988 -1025 -72 -187 167 0
-984 -989 -1025 -72 -190 167 0
-985 -987 -1025 -154 -185 167 0
-985 -988 -1025 -154 -187 167 0
-985 -989 -1025 -154 -190 167 0
-986 -987 -1025 -163 -185 167 0
-986 -988 -1025 -163 -187 167 0
-986 -989 -1025 -163 -190 167 0
-987 -990 -1026 -185 -51 6 0
-987 -991 -1026 -185 -119 6 0
-987 -992 -1026 -185 -131 6 0
-988 -990 -1026 -187 -51 6 0
-988 -991 -1026 -187 -119 6 0
-988 -992 -1026 -187 -131 6 0
-989 -990 -1026 -190 -51 6 0
-989 -991 -1026 -190 -119 6 0
-989 -992 -1026 -190 -131 6 0
-987 -990 -1027 -185 -51 75 0
-987 -991 -1027 -185 -119 75 0
-987 -992 -1027 -185 -131 75 0
-988 -990 -1027 -187 -51 75 0
-988 -991 -1027 -187 -119 75 0
-988 -992 -1027 -187 -131 75 0
-989 -990 -1027 -190 -51 75 0
-989 -991 -1027 -190 -119 75 0
-989 -992 -1027 -190 -131 75 0
-987 -990 -1028 -185 -51 162 0
-987 -991 -1028 -185 -119 162 0
-987 -992 -1028 -185 -131 162 0
-988 -990 -1028 -187 -51 162 0
-988 -991 -1028 -187 -119 162 0
-988 -992 -1028 -187 -131 162 0
-989 -990 -1028 -190 -51 162 0
-989 -991 -1028 -190 -119 162 0
-989 -992 -1028 -190 -131 162 0
-990 -994 -1029 -51 -133 105 0
-990 -995 -1029 -51 -154 105 0
-991 -994 -1029 -119 -133 105 0
-991 -995 -1029 -119 -154 105 0
-992 -994 -1029 -131 -133 105 0
-992 -995 -1029 -131 -154 105 0
-990 -993 -1030 -51 -105 162 0
-990 -994 -1030 -51 -133 162 0
-990 -995 -1030 -51 -154 162 0
-991 -993 -1030 -119 -105 162 0
-991 -994 -1030 -119 -133 162 0
-991 -995 -1030 -119 -154 162 0
-992 -993 -1030 -131 -105 162 0
-992 -994 -1030 -131 -133 162 0
-992 -995 -1030 -131 -154 162 0
-990 -993 -1031 -51 -105 185 0
-990 -994 -1031 -51 -133 185 0
-990 -995 -1031 -51 -154 185 0
-991 -993 -1031 -119 -105 185 0
-991 -994 -1031 -119 -133 185 0
-991 -995 -1031 -119 -154 185 0
-992 -993 -1031 -131 -105 185 0
-992 -994 -1031 -131 -133 185 0
-992 -995 -1031 -131 -154 185 0
-993 -996 -1032 -105 -79 40 0
-993 -997 -1032 -105 -183 40 0
-993 -998 -1032 -105 -191 40 0
-994 -996 -1032 -133 -79 40 0
-994 -997 -1032 -133 -183 40 0
-994 -998 -1032 -133 -191 40 0
-995 -996 -1032 -154 -79 40 0
-995 -997 -1032 -154 -183 40 0
-995 -998 -1032 -154 -191 40 0
-993 -996 -1033 -105 -79 163 0
-993 -997 -1033 -105 -183 163 0
-993 -998 -1033 -105 -191 163 0
-994 -996 -1033 -133 -79 163 0
-994 -997 -1033 -133 -183 163 0
-994 -998 -1033 -133 -191 163 0
-995 -996 -1033 -154 -79 163 0
-995 -997 -1033 -154 -183 163 0
-995 -998 -1033 -154 -191 163 0
-993 -996 -1034 -105 -79 200 0
-993 -997 -1034 -105 -183 200 0
-993 -998 -1034 -105 -191 200 0
-994 -996 -1034 -133 -79 200 0
-994 -997 -1034 -133 -183 200 0
-994 -998 -1034 -133 -191 200 0
-995 -996 -1034 -154 -79 200 0
-995 -997 -1034 -154 -183 200 0
-995 -998 -1034 -154 -191 200 0
-996 -999 -1035 -79 -44 46 0
-996 -1000 -1035 -79 -116 46 0
-996 -1001 -1035 -79 -180 46 0
-997 -999 -1035 -183 -44 46 0
-997 -1000 -1035 -183 -116 46 0
-997 -1001 -1035 -183 -180 46 0
-998 -999 -1035 -191 -44 46 0
-998 -1000 -1035 -191 -116 46 0
-998 -1001 -1035 -191 -180 46 0
-996 -999 -1036 -79 -44 70 0
-996 -1000 -1036 -79 -116 70 0
-996 -1001 -1036 -79 -180 70 0
-997 -999 -1036 -183 -44 70 0
-997 -1000 -1036 -183 -116 70 0
-997 -1001 -1036 -183 -180 70 0
-998 -999 -1036 -191 -44 70 0
-998 -1000 -1036 -191 -116 70 0
-998 -1001 -1036 -191 -180 70 0
-996 -999 -1037 -79 -44 102 0
-996 -1000 -1037 -79 -116 102 0
-996 -1001 -1037 -79 -180 102 0
-997 -999 -1037 -183 -44 102 0
-997 -1000 -1037 -183 -116 102 0
-997 -1001 -1037 -183 -180 102 0
-998 -999 -1037 -191 -44 102 0
-998 -1000 -1037 -191 -116 102 0
-998 -1001 -1037 -191 -180 102 0
-999 -1002 -1038 -44 -136 19 0
-999 -1003 -1038 -44 -159 19 0
-999 -1004 -1038 -44 -172 19 0
-1000 -1002 -1038 -116 -136 19 0
-1000 -1003 -1038 -116 -159 19 0
-1000 -1004 -1038 -116 -172 19 0
-1001 -1002 -1038 -180 -136 19 0
-1001 -1003 -1038 -180 -159 19 0
-1001 -1004 -1038 -180 -172 19 0
-999 -1002 -1039 -44 -136 197 0
-999 -1003 -1039 -44 -159 197 0
-999 -1004 -1039 -44 -172 197 0
-1000 -1002 -1039 -116 -136 197 0
-1000 -1003 -1039 -116 -159 197 0
-1000 -1004 -1039 -116 -172 197 0
-1001 -1002 -1039 -180 -136 197 0
-1001 -1003 -1039 -180 -159 197 0
-1001 -1004 -1039 -180 -172 197 0
-999 -1002 -1040 -44 -136 199 0
-999 -1003 -1040 -44 -159 199 0
-999 -1004 -1040 -44 -172 199 0
-1000 -1002 -1040 -116 -136 199 0
-1000 -1003 -1040 -116 -159 199 0
-1000 -1004 -1040 -116 -172 199 0
-1001 -1002 -1040 -180 -136 199 0
-1001 -1003 -1040 -180 -159 199 0
-1001 -1004 -1040 -180 -172 199 0
-1002 -1005 -1041 -136 -51 3 0
-1002 -1006 -1041 -136 -93 3 0
-1002 -1007 -1041 -136 -135 3 0
-1003 -1005 -1041 -159 -51 3 0
-1003 -1006 -1041 -159 -93 3 0
-1003 -1007 -1041 -159 -135 3 0
-1004 -1005 -1041 -172 -51 3 0
-1004 -1006 -1041 -172 -93 3 0
-1004 -1007 -1041 -172 -135 3 0
-1002 -1005 -1042 -136 -51 90 0
-1002 -1006 -1042 -136 -93 90 0
-1002 -1007 -1042 -136 -135 90 0
-1003 -1005 -1042 -159 -51 90 0
-1003 -1006 -1042 -159 -93 90 0
-1003 -1007 -1042 -159 -135 90 0
-1004 -1005 -1042 -172 -51 90 0
-1004 -1006 -1042 -172 -93 90 0
-1004 -1007 -1042 -172 -135 90 0
-1002 -1005 -1043 -136 -51 155 0
-1002 -1006 -1043 -136 -93 155 0
-1002 -1007 -1043 -136 -135 155 0
-1003 -1005 -1043 -159 -51 155 0
-1003 -1006 -1043 -159 -93 155 0
-1003 -1007 -1043 -159 -135 155 0
-1004 -1005 -1043 -172 -51 155 0
-1004 -1006 -1043 -172 -93 155 0
-1004 -1007 -1043 -172 -135 155 0
-1005 -1008 -1044 -51 -1 68 0
-1005 -1009 -1044 -51 -100 68 0
-1005 -1010 -1044 -51 -174 68 0
-1006 -1008 -1044 -93 -1 68 0
-1006 -1009 -1044 -93 -100 68 0
-1006 -1010 -1044 -93 -174 68 0
-1007 -1008 -1044 -135 -1 68 0
-1007 -1009 -1044 -135 -100 68 0
-1007 -1010 -1044 -135 -174 68 0
-1005 -1008 -1045 -51 -1 106 0
-1005 -1009 -1045 -51 -100 106 0
-1005 -1010 -1045 -51 -174 106 0
-1006 -1008 -1045 -93 -1 106 0
-1006 -1009 -1045 -93 -100 106 0
-1006 -1010 -1045 -93 -174 106 0
-1007 -1008 -1045 -135 -1 106 0
-1007 -1009 -1045 -135 -100 106 0
-1007 -1010 -1045 -135 -174 106 0
-1005 -1008 -1046 -51 -1 182 0
-1005 -1009 -1046 -51 -100 182 0
-1005 -1010 -1046 -51 -174 182 0
-1006 -1008 -1046 -93 -1 182 0
-1006 -1009 -1046 -93 -100 182 0
-1006 -1010 -1046 -93 -174 182 0
-1007 -1008 -1046 -135 -1 182 0
-1007 -1009 -1046 -135 -100 182 0
-1007 -1010 -1046 -135 -174 182 0
-1008 -1011 -1047 -1 -104 78 0
-1008 -1012 -1047 -1 -110 78 0
-1008 -1013 -1047 -1 -149 78 0
-1009 -1011 -1047 -100 -104 78 0
-1009 -1012 -1047 -100 -110 78 0
-1009 -1013 -1047 -100 -149 78 0
-1010 -1011 -1047 -174 -104 78 0
-1010 -1012 -1047 -174 -110 78 0
-1010 -1013 -1047 -174 -149 78 0
-1008 -1011 -1048 -1 -104 140 0
-1008 -1012 -1048 -1 -110 140 0
-1008 -1013 -1048 -1 -149 140 0
-1009 -1011 -1048 -100 -104 140 0
-1009 -1012 -1048 -100 -110 140 0
-1009 -1013 -1048 -100 -149 140 0
-1010 -1011 -1048 -174 -104 140 0
-1010 -1012 -1048 -174 -110 140 0
-1010 -1013 -1048 -174 -149 140 0
-1008 -1011 -1049 -1 -104 176 0
-1008 -1012 -1049 -1 -110 176 0
-1008 -1013 -1049 -1 -149 176 0
-1009 -1011 -1049 -100 -104 176 0
-1009 -1012 -1049 -100 -110 176 0
-1009 -1013 -1049 -100 -149 176 0
-1010 -1011 -1049 -174 -104 176 0
-1010 -1012 -1049 -174 -110 176 0
-1010 -1013 -1049 -174 -149 176 0
-1011 -1014 -1050 -104 -87 39 0
-1011 -1015 -1050 -104 -150 39 0
-1011 -1016 -1050 -104 -160 39 0
-1012 -1014 -1050 -110 -87 39 0
-1012 -1015 -1050 -110 -150 39 0
-1012 -1016 -1050 -110 -160 39 0
-1013 -1014 -1050 -149 -87 39 0
-1013 -1015 -1050 -149 -150 39 0
-1013 -1016 -1050 -149 -160 39 0
-1011 -1014 -1051 -104 -87 67 0
-1011 -1015 -1051 -104 -150 67 0
-1011 -1016 -1051 -104 -160 67 0
-1012 -1014 -1051 -110 -87 67 0
-1012 -1015 -1051 -110 -150 67 0
-1012 -1016 -1051 -110 -160 67 0
-1013 -1014 -1051 -149 -87 67 0
-1013 -1015 -1051 -149 -150 67 0
-1013 -1016 -1051 -149 -160 67 0
-1011 -1014 -1052 -104 -87 119 0
-1011 -1015 -1052 -104 -150 119 0
-1011 -1016 -1052 -104 -160 119 0
-1012 -1014 -1052 -110 -87 119 0
-1012 -1015 -1052 -110 -150 119 0
-1012 -1016 -1052 -110 -160 119 0
-1013 -1014 -1052 -149 -87 119 0
-1013 -1015 -1052 -149 -150 119 0
-1013 -1016 -1052 -149 -160 119 0
-1014 -1017 -1053 -87 -180 44 0
-1014 -1018 -1053 -87 -188 44 0
-1014 -1019 -1053 -87 -192 44 0
-1015 -1017 -1053 -150 -180 44 0
-1015 -1018 -1053 -150 -188 44 0
-1015 -1019 -1053 -150 -192 44 0
-1016 -1017 -1053 -160 -180 44 0
-1016 -1018 -1053 -160 -188 44 0
-1016 -1019 -1053 -160 -192 44 0
-1014 -1017 -1054 -87 -180 120 0
-1014 -1018 -1054 -87 -188 120 0
-1014 -1019 -1054 -87 -192 120 0
-1015 -1017 -1054 -150 -180 120 0
-1015 -1018 -1054 -150 -188 120 0
-1015 -1019 -1054 -150 -192 120 0
-1016 -1017 -1054 -160 -180 120 0
-1016 -1018 -1054 -160 -188 120 0
-1016 -1019 -1054 -160 -192 120 0
-1014 -1017 -1055 -87 -180 125 0
-1014 -1018 -1055 -87 -188 125 0
-1014 -1019 -1055 -87 -192 125 0
-1015 -1017 -1055 -150 -180 125 0
-1015 -1018 -1055 -150 -188 125 0
-1015 -1019 -1055 -150 -192 125 0
-1016 -1017 -1055 -160 -180 125 0
-1016 -1018 -1055 -160 -188 125 0
-1016 -1019 -1055 -160 -192 125 0
-1020 -1023 -1056 -18 -64 12 0
-1020 -1024 -1056 -18 -164 12 0
-1020 -1025 -1056 -18 -167 12 0
-1021 -1023 -1056 -127 -64 12 0
-1021 -1024 -1056 -127 -164 12 0
-1021 -1025 -1056 -127 -167 12 0
-1022 -1023 -1056 -191 -64 12 0
-1022 -1024 -1056 -191 -164 12 0
-1022 -1025 -1056 -191 -167 12 0
-1020 -1023 -1057 -18 -64 70 0
-1020 -1024 -1057 -18 -164 70 0
-1020 -1025 -1057 -18 -167 70 0
-1021 -1023 -1057 -127 -64 70 0
-1021 -1024 -1057 -127 -164 70 0
-1021 -1025 -1057 -127 -167 70 0
-1022 -1023 -1057 -191 -64 70 0
-1022 -1024 -1057 -191 -164 70 0
-1022 -1025 -1057 -191 -167 70 0
-1020 -1023 -1058 -18 -64 131 0
-1020 -1024 -1058 -18 -164 131 0
-1020 -1025 -1058 -18 -167 131 0
-1021 -1023 -1058 -127 -64 131 0
-1021 -1024 -1058 -127 -164 131 0
-1021 -1025 -1058 -127 -167 131 0
-1022 -1023 -1058 -191 -64 131 0
-1022 -1024 -1058 -191 -164 131 0
-1022 -1025 -1058 -191 -167 131 0
-1023 -1026 -1059 -64 -6 26 0
-1023 -1027 -1059 -64 -75 26 0
-1023 -1028 -1059 -64 -162 26 0
-1024 -1026 -1059 -164 -6 26 0
-1024 -1027 -1059 -164 -75 26 0
-1024 -1028 -1059 -164 -162 26 0
-1025 -1026 -1059 -167 -6 26 0
-1025 -1027 -1059 -167 -75 26 0
-1025 -1028 -1059 -167 -162 26 0
-1023 -1026 -1060 -64 -6 131 0
-1023 -1027 -1060 -64 -75 131 0
-1023 -1028 -1060 -64 -162 131 0
-1024 -1026 -1060 -164 -6 131 0
-1024 -1027 -1060 -164 -75 131 0
-1024 -1028 -1060 -164 -162 131 0
-1025 -1026 -1060 -167 -6 131 0
-1025 -1027 -1060 -167 -75 131 0
-1025 -1028 -1060 -167 -162 131 0
-1023 -1026 -1061 -64 -6 191 0
-1023 -1027 -1061 -64 -75 191 0
-1023 -1028 -1061 -64 -162 191 0
-1024 -1026 -1061 -164 -6 191 0
-1024 -1027 -1061 -164 -75 191 0
-1024 -1028 -1061 -164 -162 191 0
-1025 -1026 -1061 -167 -6 191 0
-1025 -1027 -1061 -167 -75 191 0
-1025 -1028 -1061 -167 -162 191 0
-1026 -1029 -1062 -6 -105 18 0
-1026 -1030 -1062 -6 -162 18 0
-1026 -1031 -1062 -6 -185 18 0
-1027 -1029 -1062 -75 -105 18 0
-1027 -1030 -1062 -75 -162 18 0
-1027 -1031 -1062 -75 -185 18 0
-1028 -1029 -1062 -162 -105 18 0
-1028 -1030 -1062 -162 18 0
-1028 -1031 -1062 -162 -185 18 0
-1026 -1029 -1063 -6 -105 109 0
-1026 -1030 -1063 -6 -162 109 0
-1026 -1031 -1063 -6 -185 109 0
-1027 -1029 -1063 -75 -105 109 0
-1027 -1030 -1063 -75 -162 109 0
-1027 -1031 -1063 -75 -185 109 0
-1028 -1029 -1063 -162 -105 109 0
-1028 -1030 -1063 -162 109 0
-1028 -1031 -1063 -162 -185 109 0
-1026 -1029 -1064 -6 -105 152 0
-1026 -1030 -1064 -6 -162 152 0
-1026 -1031 -1064 -6 -185 152 0
-1027 -1029 -1064 -75 -105 152 0
-1027 -1030 -1064 -75 -162 152 0
-1027 -1031 -1064 -75 -185 152 0
-1028 -1029 -1064 -162 -105 152 0
-1028 -1030 -1064 -162 152 0
-1028 -1031 -1064 -162 -185 152 0
-1029 -1032 -1065 -105 -40 18 0
-1029 -1033 -1065 -105 -163 18 0
-1029 -1034 -1065 -105 -200 18 0
-1030 -1032 -1065 -162 -40 18 0
-1030 -1033 -1065 -162 -163 18 0
-1030 -1034 -1065 -162 -200 18 0
-1031 -1032 -1065 -185 -40 18 0
-1031 -1033 -1065 -185 -163 18 0
-1031 -1034 -1065 -185 -200 18 0
-1029 -1032 -1066 -105 -40 91 0
-1029 -1033 -1066 -105 -163 91 0
-1029 -1034 -1066 -105 -200 91 0
-1030 -1032 -1066 -162 -40 91 0
-1030 -1033 -1066 -162 -163 91 0
-1030 -1034 -1066 -162 -200 91 0
-1031 -1032 -1066 -185 -40 91 0
-1031 -1033 -1066 -185 -163 91 0
-1031 -1034 -1066 -185 -200 91 0
-1029 -1032 -1067 -105 -40 169 0
-1029 -1033 -1067 -105 -163 169 0
-1029 -1034 -1067 -105 -200 169 0
-1030 -1032 -1067 -162 -40 169 0
-1030 -1033 -1067 -162 -163 169 0
-1030 -1034 -1067 -162 -200 169 0
-1031 -1032 -1067 -185 -40 169 0
-1031 -1033 -1067 -185 -163 169 0
-1031 -1034 -1067 -185 -200 169 0
-1032 -1035 -1068 -40 -46 6 0
-1032 -1036 -1068 -40 -70 6 0
-1032 -1037 -1068 -40 -102 6 0
-1033 -1035 -1068 -163 -46 6 0
-1033 -1036 -1068 -163 -70 6 0
-1033 -1037 -1068 -163 -102 6 0
-1034 -1035 -1068 -200 -46 6 0
-1034 -1036 -1068 -200 -70 6 0
-1034 -1037 -1068 -200 -102 6 0
-1032 -1035 -1069 -40 -46 43 0
-1032 -1036 -1069 -40 -70 43 0
-1032 -1037 -1069 -40 -102 43 0
-1033 -1035 -1069 -163 -46 43 0
-1033 -1036 -1069 -163 -70 43 0
-1033 -1037 -1069 -163 -102 43 0
-1034 -1035 -1069 -200 -46 43 0
-1034 -1036 -1069 -200 -70 43 0
-1034 -1037 -1069 -200 -102 43 0
-1032 -1035 -1070 -40 -46 114 0
-1032 -1036 -1070 -40 -70 114 0
-1032 -1037 -1070 -40 -102 114 0
-1033 -1035 -1070 -163 -46 114 0
-1033 -1036 -1070 -163 -70 114 0
-1033 -1037 -1070 -163 -102 114 0
-1034 -1035 -1070 -200 -46 114 0
-1034 -1036 -1070 -200 -70 114 0
-1034 -1037 -1070 -200 -102 114 0
-1035 -1038 -1071 -46 -19 42 0
-1035 -1039 -1071 -46 -197 42 0
-1035 -1040 -1071 -46 -199 42 0
-1036 -1038 -1071 -70 -19 42 0
-1036 -1039 -1071 -70 -197 42 0
-1036 -1040 -1071 -70 -199 42 0
-1037 -1038 -1071 -102 -19 42 0
-1037 -1039 -1071 -102 -197 42 0
-1037 -1040 -1071 -102 -199 42 0
-1035 -1038 -1072 -46 -19 130 0
-1035 -1039 -1072 -46 -197 130 0
-1035 -1040 -1072 -46 -199 130 0
-1036 -1038 -1072 -70 -19 130 0
-1036 -1039 -1072 -70 -197 130 0
-1036 -1040 -1072 -70 -199 130 0
-1037 -1038 -1072 -102 -19 130 0
-1037 -1039 -1072 -102 -197 130 0
-1037 -1040 -1072 -102 -199 130 0
-1035 -1038 -1073 -46 -19 182 0
-1035 -1039 -1073 -46 -197 182 0
-1035 -1040 -1073 -46 -199 182 0
-1036 -1038 -1073 -70 -19 182 0
-1036 -1039 -1073 -70 -197 182 0
-1036 -1040 -1073 -70 -199 182 0
-1037 -1038 -1073 -102 -19 182 0
-1037 -1039 -1073 -102 -197 182 0
-1037 -1040 -1073 -102 -199 182 0
-1038 -1041 -1074 -19 -3 24 0
-1038 -1042 -1074 -19 -90 24 0
-1038 -1043 -1074 -19 -155 24 0
-1039 -1041 -1074 -197 -3 24 0
-1039 -1042 -1074 -197 -90 24 0
-1039 -1043 -1074 -197 -155 24 0
-1040 -1041 -1074 -199 -3 24 0
-1040 -1042 -1074 -199 -90 24 0
-1040 -1043 -1074 -199 -155 24 0
-1038 -1041 -1075 -19 -3 103 0
-1038 -1042 -1075 -19 -90 103 0
-1038 -1043 -1075 -19 -155 103 0
-1039 -1041 -1075 -197 -3 103 0
-1039 -1042 -1075 -197 -90 103 0
-1039 -1043 -1075 -197 -155 103 0
-1040 -1041 -1075 -199 -3 103 0
-1040 -1042 -1075 -199 -90 103 0
-1040 -1043 -1075 -199 -155 103 0
-1038 -1041 -1076 -19 -3 177 0
-1038 -1042 -1076 -19 -90 177 0
-1038 -1043 -1076 -19 -155 177 0
-1039 -1041 -1076 -197 -3 177 0
-1039 -1042 -1076 -197 -90 177 0
-1039 -1043 -1076 -197 -155 177 0
-1040 -1041 -1076 -199 -3 177 0
-1040 -1042 -1076 -199 -90 177 0
-1040 -1043 -1076 -199 -155 177 0
-1041 -1044 -1077 -3 -68 71 0
-1041 -1045 -1077 -3 -106 71 0
-1041 -1046 -1077 -3 -182 71 0
-1042 -1044 -1077 -90 -68 71 0
-1042 -1045 -1077 -90 -106 71 0
-1042 -1046 -1077 -90 -182 71 0
-1043 -1044 -1077 -155 -68 71 0
-1043 -1045 -1077 -155 -106 71 0
-1043 -1046 -1077 -155 -182 71 0
-1041 -1044 -1078 -3 -68 163 0
-1041 -1045 -1078 -3 -106 163 0
-1041 -1046 -1078 -3 -182 163 0
-1042 -1044 -1078 -90 -68 163 0
-1042 -1045 -1078 -90 -106 163 0
-1042 -1046 -1078 -90 -182 163 0
-1043 -1044 -1078 -155 -68 163 0
-1043 -1045 -1078 -155 -106 163 0
-1043 -1046 -1078 -155 -182 163 0
-1041 -1044 -1079 -3 -68 177 0
-1041 -1045 -1079 -3 -106 177 0
-1041 -1046 -1079 -3 -182 177 0
-1042 -1044 -1079 -90 -68 177 0
-1042 -1045 -1079 -90 -106 177 0
-1042 -1046 -1079 -90 -182 177 0
-1043 -1044 -1079 -155 -68 177 0
-1043 -1045 -1079 -155 -106 177 0
-1043 -1046 -1079 -155 -182 177 0
-1044 -1047 -1080 -68 -78 54 0
-1044 -1048 -1080 -68 -140 54 0
-1044 -1049 -1080 -68 -176 54 0
-1045 -1047 -1080 -106 -78 54 0
-1045 -1048 -1080 -106 -140 54 0
-1045 -1049 -1080 -106 -176 54 0
-1046 -1047 -1080 -182 -78 54 0
-1046 -1048 -1080 -182 -140 54 0
-1046 -1049 -1080 -182 -176 54 0
-1044 -1048 -1081 -68 -140 78 0
-1044 -1049 -1081 -68 -176 78 0
-1045 -1048 -1081 -106 -140 78 0
-1045 -1049 -1081 -106 -176 78 0
-1046 -1048 -1081 -182 -140 78 0
-1046 -1049 -1081 -182 -176 78 0
-1044 -1047 -1082 -68 -78 155 0
-1044 -1048 -1082 -68 -140 155 0
-1044 -1049 -1082 -68 -176 155 0
-1045 -1047 -1082 -106 -78 155 0
-1045 -1048 -1082 -106 -140 155 0
-1045 -1049 -1082 -106 -176 155 0
-1046 -1047 -1082 -182 -78 155 0
-1046 -1048 -1082 -182 -140 155 0
-1046 -1049 -1082 -182 -176 155 0
-1047 -1050 -1083 -78 -39 54 0
-1047 -1051 -1083 -78 -67 54 0
-1047 -1052 -1083 -78 -119 54 0
-1048 -1050 -1083 -140 -39 54 0
-1048 -1051 -1083 -140 -67 54 0
-1048 -1052 -1083 -140 -119 54 0
-1049 -1050 -1083 -176 -39 54 0
-1049 -1051 -1083 -176 -67 54 0
-1049 -1052 -1083 -176 -119 54 0
-1047 -1050 -1084 -78 -39 61 0
-1047 -1051 -1084 -78 -67 61 0
-1047 -1052 -1084 -78 -119 61 0
-1048 -1050 -1084 -140 -39 61 0
-1048 -1051 -1084 -140 -67 61 0
-1048 -1052 -1084 -140 -119 61 0
-1049 -1050 -1084 -176 -39 61 0
-1049 -1051 -1084 -176 -67 61 0
-1049 -1052 -1084 -176 -119 61 0
-1047 -1050 -1085 -78 -39 136 0
-1047 -1051 -1085 -78 -67 136 0
-1047 -1052 -1085 -78 -119 136 0
-1048 -1050 -1085 -140 -39 136 0
-1048 -1051 -1085 -140 -67 136 0
-1048 -1052 -1085 -140 -119 136 0
-1049 -1050 -1085 -176 -39 136 0
-1049 -1051 -1085 -176 -67 136 0
-1049 -1052 -1085 -176 -119 136 0
-1050 -1053 -1086 -39 -44 18 0
-1050 -1054 -1086 -39 -120 18 0
-1050 -1055 -1086 -39 -125 18 0
-1051 -1053 -1086 -67 -44 18 0
-1051 -1054 -1086 -67 -120 18 0
-1051 -1055 -1086 -67 -125 18 0
-1052 -1053 -1086 -119 -44 18 0
-1052 -1054 -1086 -119 -120 18 0
-1052 -1055 -1086 -119 -125 18 0
-1050 -1053 -1087 -39 -44 69 0
-1050 -1054 -1087 -39 -120 69 0
-1050 -1055 -1087 -39 -125 69 0
-1051 -1053 -1087 -67 -44 69 0
-1051 -1054 -1087 -67 -120 69 0
-1051 -1055 -1087 -67 -125 69 0
-1052 -1053 -1087 -119 -44 69 0
-1052 -1054 -1087 -119 -120 69 0
-1052 -1055 -1087 -119 -125 69 0
-1050 -1053 -1088 -39 -44 86 0
-1050 -1054 -1088 -39 -120 86 0
-1050 -1055 -1088 -39 -125 86 0
-1051 -1053 -1088 -67 -44 86 0
-1051 -1054 -1088 -67 -120 86 0
-1051 -1055 -1088 -67 -125 86 0
-1052 -1053 -1088 -119 -44 86 0
-1052 -1054 -1088 -119 -120 86 0
-1052 -1055 -1088 -119 -125 86 0
-1056 -1059 -1089 -12 -26 20 0
-1056 -1060 -1089 -12 -131 20 0
-1056 -1061 -1089 -12 -191 20 0
-1057 -1059 -1089 -70 -26 20 0
-1057 -1060 -1089 -70 -131 20 0
-1057 -1061 -1089 -70 -191 20 0
-1058 -1059 -1089 -131 -26 20 0
-1058 -1060 -1089 -131 20 0
-1058 -1061 -1089 -131 -191 20 0
-1056 -1059 -1090 -12 -26 134 0
-1056 -1060 -1090 -12 -131 134 0
-1056 -1061 -1090 -12 -191 134 0
-1057 -1059 -1090 -70 -26 134 0
-1057 -1060 -1090 -70 -131 134 0
-1057 -1061 -1090 -70 -191 134 0
-1058 -1059 -1090 -131 -26 134 0
-1058 -1060 -1090 -131 134 0
-1058 -1061 -1090 -131 -191 134 0
-1056 -1059 -1091 -12 -26 179 0
-1056 -1060 -1091 -12 -131 179 0
-1056 -1061 -1091 -12 -191 179 0
-1057 -1059 -1091 -70 -26 179 0
-1057 -1060 -1091 -70 -131 179 0
-1057 -1061 -1091 -70 -191 179 0
-1058 -1059 -1091 -131 -26 179 0
-1058 -1060 -1091 -131 179 0
-1058 -1061 -1091 -131 -191 179 0
-1059 -1062 -1092 -26 -18 95 0
-1059 -1063 -1092 -26 -109 95 0
-1059 -1064 -1092 -26 -152 95 0
-1060 -1062 -1092 -131 -18 95 0
-1060 -1063 -1092 -131 -109 95 0
-1060 -1064 -1092 -131 -152 95 0
-1061 -1062 -1092 -191 -18 95 0
-1061 -1063 -1092 -191 -109 95 0
-1061 -1064 -1092 -191 -152 95 0
-1059 -1062 -1093 -26 -18 120 0
-1059 -1063 -1093 -26 -109 120 0
-1059 -1064 -1093 -26 -152 120 0
-1060 -1062 -1093 -131 -18 120 0
-1060 -1063 -1093 -131 -109 120 0
-1060 -1064 -1093 -131 -152 120 0
-1061 -1062 -1093 -191 -18 120 0
-1061 -1063 -1093 -191 -109 120 0
-1061 -1064 -1093 -191 -152 120 0
-1059 -1062 -1094 -26 -18 169 0
-1059 -1063 -1094 -26 -109 169 0
-1059 -1064 -1094 -26 -152 169 0
-1060 -1062 -1094 -131 -18 169 0
-1060 -1063 -1094 -131 -109 169 0
-1060 -1064 -1094 -131 -152 169 0
-1061 -1062 -1094 -191 -18 169 0
-1061 -1063 -1094 -191 -109 169 0
-1061 -1064 -1094 -191 -152 169 0
-1062 -1065 -1095 -18 131 0
-1062 -1066 -1095 -18 -91 131 0
-1062 -1067 -1095 -18 -169 131 0
-1063 -1065 -1095 -109 -18 131 0
-1063 -1066 -1095 -109 -91 131 0
-1063 -1067 -1095 -109 -169 131 0
-1064 -1065 -1095 -152 -18 131 0
-1064 -1066 -1095 -152 -91 131 0
-1064 -1067 -1095 -152 -169 131 0
-1062 -1065 -1096 -18 143 0
-1062 -1066 -1096 -18 -91 143 0
-1062 -1067 -1096 -18 -169 143 0
-1063 -1065 -1096 -109 -18 143 0
-1063 -1066 -1096 -109 -91 143 0
-1063 -1067 -1096 -109 -169 143 0
-1064 -1065 -1096 -152 -18 143 0
-1064 -1066 -1096 -152 -91 143 0
-1064 -1067 -1096 -152 -169 143 0
-1062 -1065 -1097 -18 189 0
-1062 -1066 -1097 -18 -91 189 0
-1062 -1067 -1097 -18 -169 189 0
-1063 -1065 -1097 -109 -18 189 0
-1063 -1066 -1097 -109 -91 189 0
-1063 -1067 -1097 -109 -169 189 0
-1064 -1065 -1097 -152 -18 189 0
-1064 -1066 -1097 -152 -91 189 0
-1064 -1067 -1097 -152 -169 189 0
-1065 -1068 -1098 -18 -6 13 0
-1065 -1069 -1098 -18 -43 13 0
-1065 -1070 -1098 -18 -114 13 0
-1066 -1068 -1098 -91 -6 13 0
-1066 -1069 -1098 -91 -43 13 0
-1066 -1070 -1098 -91 -114 13 0
-1067 -1068 -1098 -169 -6 13 0
-1067 -1069 -1098 -169 -43 13 0
-1067 -1070 -1098 -169 -114 13 0
-1065 -1068 -1099 -18 -6 44 0
-1065 -1069 -1099 -18 -43 44 0
-1065 -1070 -1099 -18 -114 44 0
-1066 -1068 -1099 -91 -6 44 0
-1066 -1069 -1099 -91 -43 44 0
-1066 -1070 -1099 -91 -114 44 0
-1067 -1068 -1099 -169 -6 44 0
-1067 -1069 -1099 -169 -43 44 0
-1067 -1070 -1099 -169 -114 44 0
-1065 -1068 -1100 -18 -6 77 0
-1065 -1069 -1100 -18 -43 77 0
-1065 -1070 -1100 -18 -114 77 0
-1066 -1068 -1100 -91 -6 77 0
-1066 -1069 -1100 -91 -43 77 0
-1066 -1070 -1100 -91 -114 77 0
-1067 -1068 -1100 -169 -6 77 0
-1067 -1069 -1100 -169 -43 77 0
-1067 -1070 -1100 -169 -114 77 0
-1068 -1071 -1101 -6 -42 168 0
-1068 -1072 -1101 -6 -130 168 0
-1068 -1073 -1101 -6 -182 168 0
-1069 -1071 -1101 -43 -42 168 0
-1069 -1072 -1101 -43 -130 168 0
-1069 -1073 -1101 -43 -182 168 0
-1070 -1071 -1101 -114 -42 168 0
-1070 -1072 -1101 -114 -130 168 0
-1070 -1073 -1101 -114 -182 168 0
-1068 -1071 -1102 -6 -42 183 0
-1068 -1072 -1102 -6 -130 183 0
-1068 -1073 -1102 -6 -182 183 0
-1069 -1071 -1102 -43 -42 183 0
-1069 -1072 -1102 -43 -130 183 0
-1069 -1073 -1102 -43 -182 183 0
-1070 -1071 -1102 -114 -42 183 0
-1070 -1072 -1102 -114 -130 183 0
-1070 -1073 -1102 -114 -182 183 0
-1068 -1071 -1103 -6 -42 189 0
-1068 -1072 -1103 -6 -130 189 0
-1068 -1073 -1103 -6 -182 189 0
-1069 -1071 -1103 -43 -42 189 0
-1069 -1072 -1103 -43 -130 189 0
-1069 -1073 -1103 -43 -182 189 0
-1070 -1071 -1103 -114 -42 189 0
-1070 -1072 -1103 -114 -130 189 0
-1070 -1073 -1103 -114 -182 189 0
-1071 -1074 -1104 -42 -24 70 0
-1071 -1075 -1104 -42 -103 70 0
-1071 -1076 -1104 -42 -177 70 0
-1072 -1074 -1104 -130 -24 70 0
-1072 -1075 -1104 -130 -103 70 0
-1072 -1076 -1104 -130 -177 70 0
-1073 -1074 -1104 -182 -24 70 0
-1073 -1075 -1104 -182 -103 70 0
-1073 -1076 -1104 -182 -177 70 0
-1071 -1074 -1105 -42 -24 92 0
-1071 -1075 -1105 -42 -103 92 0
-1071 -1076 -1105 -42 -177 92 0
-1072 -1074 -1105 -130 -24 92 0
-1072 -1075 -1105 -130 -103 92 0
-1072 -1076 -1105 -130 -177 92 0
-1073 -1074 -1105 -182 -24 92 0
-1073 -1075 -1105 -182 -103 92 0
-1073 -1076 -1105 -182 -177 92 0
-1071 -1074 -1106 -42 -24 143 0
-1071 -1075 -1106 -42 -103 143 0
-1071 -1076 -1106 -42 -177 143 0
-1072 -1074 -1106 -130 -24 143 0
-1072 -1075 -1106 -130 -103 143 0
-1072 -1076 -1106 -130 -177 143 0
-1073 -1074 -1106 -182 -24 143 0
-1073 -1075 -1106 -182 -103 143 0
-1073 -1076 -1106 -182 -177 143 0
-1074 -1077 -1107 -24 -71 60 0
-1074 -1078 -1107 -24 -163 60 0
-1074 -1079 -1107 -24 -177 60 0
-1075 -1077 -1107 -103 -71 60 0
-1075 -1078 -1107 -103 -163 60 0
-1075 -1079 -1107 -103 -177 60 0
-1076 -1077 -1107 -177 -71 60 0
-1076 -1078 -1107 -177 -163 60 0
-1076 -1079 -1107 -177 60 0
-1074 -1077 -1108 -24 -71 157 0
-1074 -1078 -1108 -24 -163 157 0
-1074 -1079 -1108 -24 -177 157 0
-1075 -1077 -1108 -103 -71 157 0
-1075 -1078 -1108 -103 -163 157 0
-1075 -1079 -1108 -103 -177 157 0
-1076 -1077 -1108 -177 -71 157 0
-1076 -1078 -1108 -177 -163 157 0
-1076 -1079 -1108 -177 157 0
-1074 -1077 -1109 -24 -71 190 0
-1074 -1078 -1109 -24 -163 190 0
-1074 -1079 -1109 -24 -177 190 0
-1075 -1077 -1109 -103 -71 190 0
-1075 -1078 -1109 -103 -163 190 0
-1075 -1079 -1109 -103 -177 190 0
-1076 -1077 -1109 -177 -71 190 0
-1076 -1078 -1109 -177 -163 190 0
-1076 -1079 -1109 -177 190 0
-1077 -1080 -1110 -71 -54 101 0
-1077 -1081 -1110 -71 -78 101 0
-1077 -1082 -1110 -71 -155 101 0
-1078 -1080 -1110 -163 -54 101 0
-1078 -1081 -1110 -163 -78 101 0
-1078 -1082 -1110 -163 -155 101 0
-1079 -1080 -1110 -177 -54 101 0
-1079 -1081 -1110 -177 -78 101 0
-1079 -1082 -1110 -177 -155 101 0
-1077 -1080 -1111 -71 -54 103 0
-1077 -1081 -1111 -71 -78 103 0
-1077 -1082 -1111 -71 -155 103 0
-1078 -1080 -1111 -163 -54 103 0
-1078 -1081 -1111 -163 -78 103 0
-1078 -1082 -1111 -163 -155 103 0
-1079 -1080 -1111 -177 -54 103 0
-1079 -1081 -1111 -177 -78 103 0
-1079 -1082 -1111 -177 -155 103 0
-1077 -1080 -1112 -71 -54 144 0
-1077 -1081 -1112 -71 -78 144 0
-1077 -1082 -1112 -71 -155 144 0
-1078 -1080 -1112 -163 -54 144 0
-1078 -1081 -1112 -163 -78 144 0
-1078 -1082 -1112 -163 -155 144 0
-1079 -1080 -1112 -177 -54 144 0
-1079 -1081 -1112 -177 -78 144 0
-1079 -1082 -1112 -177 -155 144 0
-1080 -1083 -1113 -54 45 0
-1080 -1084 -1113 -54 -61 45 0
-1080 -1085 -1113 -54 -136 45 0
-1081 -1083 -1113 -78 -54 45 0
-1081 -1084 -1113 -78 -61 45 0
-1081 -1085 -1113 -78 -136 45 0
-1082 -1083 -1113 -155 -54 45 0
-1082 -1084 -1113 -155 -61 45 0
-1082 -1085 -1113 -155 -136 45 0
-1080 -1083 -1114 -54 67 0
-1080 -1084 -1114 -54 -61 67 0
-1080 -1085 -1114 -54 -136 67 0
-1081 -1083 -1114 -78 -54 67 0
-1081 -1084 -1114 -78 -61 67 0
-1081 -1085 -1114 -78 -136 67 0
-1082 -1083 -1114 -155 -54 67 0
-1082 -1084 -1114 -155 -61 67 0
-1082 -1085 -1114 -155 -136 67 0
-1080 -1083 -1115 -54 124 0
-1080 -1084 -1115 -54 -61 124 0
-1080 -1085 -1115 -54 -136 124 0
-1081 -1083 -1115 -78 -54 124 0
-1081 -1084 -1115 -78 -61 124 0
-1081 -1085 -1115 -78 -136 124 0
-1082 -1083 -1115 -155 -54 124 0
-1082 -1084 -1115 -155 -61 124 0
-1082 -1085 -1115 -155 -136 124 0
-1083 -1086 -1116 -54 -18 85 0
-1083 -1087 -1116 -54 -69 85 0
-1083 -1088 -1116 -54 -86 85 0
-1084 -1086 -1116 -61 -18 85 0
-1084 -1087 -1116 -61 -69 85 0
-1084 -1088 -1116 -61 -86 85 0
-1085 -1086 -1116 -136 -18 85 0
-1085 -1087 -1116 -136 -69 85 0
-1085 -1088 -1116 -136 -86 85 0
-1083 -1086 -1117 -54 -18 157 0
-1083 -1087 -1117 -54 -69 157 0
-1083 -1088 -1117 -54 -86 157 0
-1084 -1086 -1117 -61 -18 157 0
-1084 -1087 -1117 -61 -69 157 0
-1084 -1088 -1117 -61 -86 157 0
-1085 -1086 -1117 -136 -18 157 0
-1085 -1087 -1117 -136 -69 157 0
-1085 -1088 -1117 -136 -86 157 0
-1083 -1086 -1118 -54 -18 184 0
-1083 -1087 -1118 -54 -69 184 0
-1083 -1088 -1118 -54 -86 184 0
-1084 -1086 -1118 -61 -18 184 0
-1084 -1087 -1118 -61 -69 184 0
-1084 -1088 -1118 -61 -86 184 0
-1085 -1086 -1118 -136 -18 184 0
-1085 -1087 -1118 -136 -69 184 0
-1085 -1088 -1118 -136 -86 184 0
-1089 -1092 -1119 -20 -95 57 0
-1089 -1093 -1119 -20 -120 57 0
-1089 -1094 -1119 -20 -169 57 0
-1090 -1092 -1119 -134 -95 57 0
-1090 -1093 -1119 -134 -120 57 0
-1090 -1094 -1119 -134 -169 57 0
-1091 -1092 -1119 -179 -95 57 0
-1091 -1093 -1119 -179 -120 57 0
-1091 -1094 -1119 -179 -169 57 0
-1089 -1092 -1120 -20 -95 67 0
-1089 -1093 -1120 -20 -120 67 0
-1089 -1094 -1120 -20 -169 67 0
-1090 -1092 -1120 -134 -95 67 0
-1090 -1093 -1120 -134 -120 67 0
-1090 -1094 -1120 -134 -169 67 0
-1091 -1092 -1120 -179 -95 67 0
-1091 -1093 -1120 -179 -120 67 0
-1091 -1094 -1120 -179 -169 67 0
-1089 -1092 -1121 -20 -95 157 0
-1089 -1093 -1121 -20 -120 157 0
-1089 -1094 -1121 -20 -169 157 0
-1090 -1092 -1121 -134 -95 157 0
-1090 -1093 -1121 -134 -120 157 0
-1090 -1094 -1121 -134 -169 157 0
-1091 -1092 -1121 -179 -95 157 0
-1091 -1093 -1121 -179 -120 157 0
-1091 -1094 -1121 -179 -169 157 0
-1092 -1095 -1122 -95 -131 63 0
-1092 -1096 -1122 -95 -143 63 0
-1092 -1097 -1122 -95 -189 63 0
-1093 -1095 -1122 -120 -131 63 0
-1093 -1096 -1122 -120 -143 63 0
-1093 -1097 -1122 -120 -189 63 0
-1094 -1095 -1122 -169 -131 63 0
-1094 -1096 -1122 -169 -143 63 0
-1094 -1097 -1122 -169 -189 63 0
-1092 -1095 -1123 -95 -131 170 0
-1092 -1096 -1123 -95 -143 170 0
-1092 -1097 -1123 -95 -189 170 0
-1093 -1095 -1123 -120 -131 170 0
-1093 -1096 -1123 -120 -143 170 0
-1093 -1097 -1123 -120 -189 170 0
-1094 -1095 -1123 -169 -131 170 0
-1094 -1096 -1123 -169 -143 170 0
-1094 -1097 -1123 -169 -189 170 0
-1092 -1095 -1124 -95 -131 181 0
-1092 -1096 -1124 -95 -143 181 0
-1092 -1097 -1124 -95 -189 181 0
-1093 -1095 -1124 -120 -131 181 0
-1093 -1096 -1124 -120 -143 181 0
-1093 -1097 -1124 -120 -189 181 0
-1094 -1095 -1124 -169 -131 181 0
-1094 -1096 -1124 -169 -143 181 0
-1094 -1097 -1124 -169 -189 181 0
-1095 -1098 -1125 -131 -13 8 0
-1095 -1099 -1125 -131 -44 8 0
-1095 -1100 -1125 -131 -77 8 0
-1096 -1098 -1125 -143 -13 8 0
-1096 -1099 -1125 -143 -44 8 0
-1096 -1100 -1125 -143 -77 8 0
-1097 -1098 -1125 -189 -13 8 0
-1097 -1099 -1125 -189 -44 8 0
-1097 -1100 -1125 -189 -77 8 0
-1095 -1098 -1126 -131 -13 104 0
-1095 -1099 -1126 -131 -44 104 0
-1095 -1100 -1126 -131 -77 104 0
-1096 -1098 -1126 -143 -13 104 0
-1096 -1099 -1126 -143 -44 104 0
-1096 -1100 -1126 -143 -77 104 0
-1097 -1098 -1126 -189 -13 104 0
-1097 -1099 -1126 -189 -44 104 0
-1097 -1100 -1126 -189 -77 104 0
-1095 -1098 -1127 -131 -13 160 0
-1095 -1099 -1127 -131 -44 160 0
-1095 -1100 -1127 -131 -77 160 0
-1096 -1098 -1127 -143 -13 160 0
-1096 -1099 -1127 -143 -44 160 0
-1096 -1100 -1127 -143 -77 160 0
-1097 -1098 -1127 -189 -13 160 0
-1097 -1099 -1127 -189 -44 160 0
-1097 -1100 -1127 -189 -77 160 0
-1098 -1101 -1128 -13 -168 82 0
-1098 -1102 -1128 -13 -183 82 0
-1098 -1103 -1128 -13 -189 82 0
-1099 -1101 -1128 -44 -168 82 0
-1099 -1102 -1128 -44 -183 82 0
-1099 -1103 -1128 -44 -189 82 0
-1100 -1101 -1128 -77 -168 82 0
-1100 -1102 -1128 -77 -183 82 0
-1100 -1103 -1128 -77 -189 82 0
-1098 -1101 -1129 -13 -168 111 0
-1098 -1102 -1129 -13 -183 111 0
-1098 -1103 -1129 -13 -189 111 0
-1099 -1101 -1129 -44 -168 111 0
-1099 -1102 -1129 -44 -183 111 0
-1099 -1103 -1129 -44 -189 111 0
-1100 -1101 -1129 -77 -168 111 0
-1100 -1102 -1129 -77 -183 111 0
-1100 -1103 -1129 -77 -189 111 0
-1098 -1101 -1130 -13 -168 195 0
-1098 -1102 -1130 -13 -183 195 0
-1098 -1103 -1130 -13 -189 195 0
-1099 -1101 -1130 -44 -168 195 0
-1099 -1102 -1130 -44 -183 195 0
-1099 -1103 -1130 -44 -189 195 0
-1100 -1101 -1130 -77 -168 195 0
-1100 -1102 -1130 -77 -183 195 0
-1100 -1103 -1130 -77 -189 195 0
-1101 -1104 -1131 -168 -70 49 0
-1101 -1105 -1131 -168 -92 49 0
-1101 -1106 -1131 -168 -143 49 0
-1102 -1104 -1131 -183 -70 49 0
-1102 -1105 -1131 -183 -92 49 0
-1102 -1106 -1131 -183 -143 49 0
-1103 -1104 -1131 -189 -70 49 0
-1103 -1105 -1131 -189 -92 49 0
-1103 -1106 -1131 -189 -143 49 0
-1101 -1104 -1132 -168 -70 64 0
-1101 -1105 -1132 -168 -92 64 0
-1101 -1106 -1132 -168 -143 64 0
-1102 -1104 -1132 -183 -70 64 0
-1102 -1105 -1132 -183 -92 64 0
-1102 -1106 -1132 -183 -143 64 0
-1103 -1104 -1132 -189 -70 64 0
-1103 -1105 -1132 -189 -92 64 0
-1103 -1106 -1132 -189 -143 64 0
-1101 -1104 -1133 -168 -70 69 0
-1101 -1105 -1133 -168 -92 69 0
-1101 -1106 -1133 -168 -143 69 0
-1102 -1104 -1133 -183 -70 69 0
-1102 -1105 -1133 -183 -92 69 0
-1102 -1106 -1133 -183 -143 69 0
-1103 -1104 -1133 -189 -70 69 0
-1103 -1105 -1133 -189 -92 69 0
-1103 -1106 -1133 -189 -143 69 0
-1104 -1107 -1134 -70 -60 19 0
-1104 -1108 -1134 -70 -157 19 0
-1104 -1109 -1134 -70 -190 19 0
-1105 -1107 -1134 -92 -60 19 0
-1105 -1108 -1134 -92 -157 19 0
-1105 -1109 -1134 -92 -190 19 0
-1106 -1107 -1134 -143 -60 19 0
-1106 -1108 -1134 -143 -157 19 0
-1106 -1109 -1134 -143 -190 19 0
-1104 -1107 -1135 -70 -60 161 0
-1104 -1108 -1135 -70 -157 161 0
-1104 -1109 -1135 -70 -190 161 0
-1105 -1107 -1135 -92 -60 161 0
-1105 -1108 -1135 -92 -157 161 0
-1105 -1109 -1135 -92 -190 161 0
-1106 -1107 -1135 -143 -60 161 0
-1106 -1108 -1135 -143 -157 161 0
-1106 -1109 -1135 -143 -190 161 0
-1104 -1107 -1136 -70 -60 188 0
-1104 -1108 -1136 -70 -157 188 0
-1104 -1109 -1136 -70 -190 188 0
-1105 -1107 -1136 -92 -60 188 0
-1105 -1108 -1136 -92 -157 188 0
-1105 -1109 -1136 -92 -190 188 0
-1106 -1107 -1136 -143 -60 188 0
-1106 -1108 -1136 -143 -157 188 0
-1106 -1109 -1136 -143 -190 188 0
-1107 -1110 -1137 -60 -101 43 0
-1107 -1111 -1137 -60 -103 43 0
-1107 -1112 -1137 -60 -144 43 0
-1108 -1110 -1137 -157 -101 43 0
-1108 -1111 -1137 -157 -103 43 0
-1108 -1112 -1137 -157 -144 43 0
-1109 -1110 -1137 -190 -101 43 0
-1109 -1111 -1137 -190 -103 43 0
-1109 -1112 -1137 -190 -144 43 0
-1107 -1110 -1138 -60 -101 114 0
-1107 -1111 -1138 -60 -103 114 0
-1107 -1112 -1138 -60 -144 114 0
-1108 -1110 -1138 -157 -101 114 0
-1108 -1111 -1138 -157 -103 114 0
-1108 -1112 -1138 -157 -144 114 0
-1109 -1110 -1138 -190 -101 114 0
-1109 -1111 -1138 -190 -103 114 0
-1109 -1112 -1138 -190 -144 114 0
-1107 -1110 -1139 -60 -101 149 0
-1107 -1111 -1139 -60 -103 149 0
-1107 -1112 -1139 -60 -144 149 0
-1108 -1110 -1139 -157 -101 149 0
-1108 -1111 -1139 -157 -103 149 0
-1108 -1112 -1139 -157 -144 149 0
-1109 -1110 -1139 -190 -101 149 0
-1109 -1111 -1139 -190 -103 149 0
-1109 -1112 -1139 -190 -144 149 0
-1110 -1113 -1140 -101 -45 38 0
-1110 -1114 -1140 -101 -67 38 0
-1110 -1115 -1140 -101 -124 38 0
-1111 -1113 -1140 -103 -45 38 0
-1111 -1114 -1140 -103 -67 38 0
-1111 -1115 -1140 -103 -124 38 0
-1112 -1113 -1140 -144 -45 38 0
-1112 -1114 -1140 -144 -67 38 0
-1112 -1115 -1140 -144 -124 38 0
-1110 -1113 -1141 -101 -45 149 0
-1110 -1114 -1141 -101 -67 149 0
-1110 -1115 -1141 -101 -124 149 0
-1111 -1113 -1141 -103 -45 149 0
-1111 -1114 -1141 -103 -67 149 0
-1111 -1115 -1141 -103 -124 149 0
-1112 -1113 -1141 -144 -45 149 0
-1112 -1114 -1141 -144 -67 149 0
-1112 -1115 -1141 -144 -124 149 0
-1110 -1113 -1142 -101 -45 187 0
-1110 -1114 -1142 -101 -67 187 0
-1110 -1115 -1142 -101 -124 187 0
-1111 -1113 -1142 -103 -45 187 0
-1111 -1114 -1142 -103 -67 187 0
-1111 -1115 -1142 -103 -124 187 0
-1112 -1113 -1142 -144 -45 187 0
-1112 -1114 -1142 -144 -67 187 0
-1112 -1115 -1142 -144 -124 187 0
-1113 -1116 -1143 -45 -85 68 0
-1113 -1117 -1143 -45 -157 68 0
-1113 -1118 -1143 -45 -184 68 0
-1114 -1116 -1143 -67 -85 68 0
-1114 -1117 -1143 -67 -157 68 0
-1114 -1118 -1143 -67 -184 68 0
-1115 -1116 -1143 -124 -85 68 0
-1115 -1117 -1143 -124 -157 68 0
-1115 -1118 -1143 -124 -184 68 0
-1113 -1116 -1144 -45 -85 118 0
-1113 -1117 -1144 -45 -157 118 0
-1113 -1118 -1144 -45 -184 118 0
-1114 -1116 -1144 -67 -85 118 0
-1114 -1117 -1144 -67 -157 118 0
-1114 -1118 -1144 -67 -184 118 0
-1115 -1116 -1144 -124 -85 118 0
-1115 -1117 -1144 -124 -157 118 0
-1115 -1118 -1144 -124 -184 118 0
-1113 -1116 -1145 -45 -85 156 0
-1113 -1117 -1145 -45 -157 156 0
-1113 -1118 -1145 -45 -184 156 0
-1114 -1116 -1145 -67 -85 156 0
-1114 -1117 -1145 -67 -157 156 0
-1114 -1118 -1145 -67 -184 156 0
-1115 -1116 -1145 -124 -85 156 0
-1115 -1117 -1145 -124 -157 156 0
-1115 -1118 -1145 -124 -184 156 0
-1119 -1122 -1146 -57 -63 36 0
-1119 -1123 -1146 -57 -170 36 0
-1119 -1124 -1146 -57 -181 36 0
-1120 -1122 -1146 -67 -63 36 0
-1120 -1123 -1146 -67 -170 36 0
-1120 -1124 -1146 -67 -181 36 0
-1121 -1122 -1146 -157 -63 36 0
-1121 -1123 -1146 -157 -170 36 0
-1121 -1124 -1146 -157 -181 36 0
-1119 -1122 -1147 -57 -63 42 0
-1119 -1123 -1147 -57 -170 42 0
-1119 -1124 -1147 -57 -181 42 0
-1120 -1122 -1147 -67 -63 42 0
-1120 -1123 -1147 -67 -170 42 0
-1120 -1124 -1147 -67 -181 42 0
-1121 -1122 -1147 -157 -63 42 0
-1121 -1123 -1147 -157 -170 42 0
-1121 -1124 -1147 -157 -181 42 0
-1119 -1122 -1148 -57 -63 135 0
-1119 -1123 -1148 -57 -170 135 0
-1119 -1124 -1148 -57 -181 135 0
-1120 -1122 -1148 -67 -63 135 0
-1120 -1123 -1148 -67 -170 135 0
-1120 -1124 -1148 -67 -181 135 0
-1121 -1122 -1148 -157 -63 135 0
-1121 -1123 -1148 -157 -170 135 0
-1121 -1124 -1148 -157 -181 135 0
-1122 -1125 -1149 -63 -8 36 0
-1122 -1126 -1149 -63 -104 36 0
-1122 -1127 -1149 -63 -160 36 0
-1123 -1125 -1149 -170 -8 36 0
-1123 -1126 -1149 -170 -104 36 0
-1123 -1127 -1149 -170 -160 36 0
-1124 -1125 -1149 -181 -8 36 0
-1124 -1126 -1149 -181 -104 36 0
-1124 -1127 -1149 -181 -160 36 0
-1122 -1125 -1150 -63 -8 184 0
-1122 -1126 -1150 -63 -104 184 0
-1122 -1127 -1150 -63 -160 184 0
-1123 -1125 -1150 -170 -8 184 0
-1123 -1126 -1150 -170 -104 184 0
-1123 -1127 -1150 -170 -160 184 0
-1124 -1125 -1150 -181 -8 184 0
-1124 -1126 -1150 -181 -104 184 0
-1124 -1127 -1150 -181 -160 184 0
-1122 -1125 -1151 -63 -8 200 0
-1122 -1126 -1151 -63 -104 200 0
-1122 -1127 -1151 -63 -160 200 0
-1123 -1125 -1151 -170 -8 200 0
-1123 -1126 -1151 -170 -104 200 0
-1123 -1127 -1151 -170 -160 200 0
-1124 -1125 -1151 -181 -8 200 0
-1124 -1126 -1151 -181 -104 200 0
-1124 -1127 -1151 -181 -160 200 0
-1125 -1128 -1152 -8 -82 80 0
-1125 -1129 -1152 -8 -111 80 0
-1125 -1130 -1152 -8 -195 80 0
-1126 -1128 -1152 -104 -82 80 0
-1126 -1129 -1152 -104 -111 80 0
-1126 -1130 -1152 -104 -195 80 0
-1127 -1128 -1152 -160 -82 80 0
-1127 -1129 -1152 -160 -111 80 0
-1127 -1130 -1152 -160 -195 80 0
-1125 -1128 -1153 -8 -82 93 0
-1125 -1129 -1153 -8 -111 93 0
-1125 -1130 -1153 -8 -195 93 0
-1126 -1128 -1153 -104 -82 93 0
-1126 -1129 -1153 -104 -111 93 0
-1126 -1130 -1153 -104 -195 93 0
-1127 -1128 -1153 -160 -82 93 0
-1127 -1129 -1153 -160 -111 93 0
-1127 -1130 -1153 -160 -195 93 0
-1125 -1128 -1154 -8 -82 113 0
-1125 -1129 -1154 -8 -111 113 0
-1125 -1130 -1154 -8 -195 113 0
-1126 -1128 -1154 -104 -82 113 0
-1126 -1129 -1154 -104 -111 113 0
-1126 -1130 -1154 -104 -195 113 0
-1127 -1128 -1154 -160 -82 113 0
-1127 -1129 -1154 -160 -111 113 0
-1127 -1130 -1154 -160 -195 113 0
-1128 -1131 -1155 -82 -49 62 0
-1128 -1132 -1155 -82 -64 62 0
-1128 -1133 -1155 -82 -69 62 0
-1129 -1131 -1155 -111 -49 62 0
-1129 -1132 -1155 -111 -64 62 0
-1129 -1133 -1155 -111 -69 62 0
-1130 -1131 -1155 -195 -49 62 0
-1130 -1132 -1155 -195 -64 62 0
-1130 -1133 -1155 -195 -69 62 0
-1128 -1131 -1156 -82 -49 103 0
-1128 -1132 -1156 -82 -64 103 0
-1128 -1133 -1156 -82 -69 103 0
-1129 -1131 -1156 -111 -49 103 0
-1129 -1132 -1156 -111 -64 103 0
-1129 -1133 -1156 -111 -69 103 0
-1130 -1131 -1156 -195 -49 103 0
-1130 -1132 -1156 -195 -64 103 0
-1130 -1133 -1156 -195 -69 103 0
-1128 -1131 -1157 -82 -49 193 0
-1128 -1132 -1157 -82 -64 193 0
-1128 -1133 -1157 -82 -69 193 0
-1129 -1131 -1157 -111 -49 193 0
-1129 -1132 -1157 -111 -64 193 0
-1129 -1133 -1157 -111 -69 193 0
-1130 -1131 -1157 -195 -49 193 0
-1130 -1132 -1157 -195 -64 193 0
-1130 -1133 -1157 -195 -69 193 0
-1131 -1134 -1158 -49 -19 30 0
-1131 -1135 -1158 -49 -161 30 0
-1131 -1136 -1158 -49 -188 30 0
-1132 -1134 -1158 -64 -19 30 0
-1132 -1135 -1158 -64 -161 30 0
-1132 -1136 -1158 -64 -188 30 0
-1133 -1134 -1158 -69 -19 30 0
-1133 -1135 -1158 -69 -161 30 0
-1133 -1136 -1158 -69 -188 30 0
-1131 -1134 -1159 -49 -19 53 0
-1131 -1135 -1159 -49 -161 53 0
-1131 -1136 -1159 -49 -188 53 0
-1132 -1134 -1159 -64 -19 53 0
-1132 -1135 -1159 -64 -161 53 0
-1132 -1136 -1159 -64 -188 53 0
-1133 -1134 -1159 -69 -19 53 0
-1133 -1135 -1159 -69 -161 53 0
-1133 -1136 -1159 -69 -188 53 0
-1131 -1134 -1160 -49 -19 184 0
-1131 -1135 -1160 -49 -161 184 0
-1131 -1136 -1160 -49 -188 184 0
-1132 -1134 -1160 -64 -19 184 0
-1132 -1135 -1160 -64 -161 184 0
-1132 -1136 -1160 -64 -188 184 0
-1133 -1134 -1160 -69 -19 184 0
-1133 -1135 -1160 -69 -161 184 0
-1133 -1136 -1160 -69 -188 184 0
-1134 -1137 -1161 -19 -43 79 0
-1134 -1138 -1161 -19 -114 79 0
-1134 -1139 -1161 -19 -149 79 0
-1135 -1137 -1161 -161 -43 79 0
-1135 -1138 -1161 -161 -114 79 0
-1135 -1139 -1161 -161 -149 79 0
-1136 -1137 -1161 -188 -43 79 0
-1136 -1138 -1161 -188 -114 79 0
-1136 -1139 -1161 -188 -149 79 0
-1134 -1137 -1162 -19 -43 175 0
-1134 -1138 -1162 -19 -114 175 0
-1134 -1139 -1162 -19 -149 175 0
-1135 -1137 -1162 -161 -43 175 0
-1135 -1138 -1162 -161 -114 175 0
-1135 -1139 -1162 -161 -149 175 0
-1136 -1137 -1162 -188 -43 175 0
-1136 -1138 -1162 -188 -114 175 0
-1136 -1139 -1162 -188 -149 175 0
-1134 -1137 -1163 -19 -43 184 0
-1134 -1138 -1163 -19 -114 184 0
-1134 -1139 -1163 -19 -149 184 0
-1135 -1137 -1163 -161 -43 184 0
-1135 -1138 -1163 -161 -114 184 0
-1135 -1139 -1163 -161 -149 184 0
-1136 -1137 -1163 -188 -43 184 0
-1136 -1138 -1163 -188 -114 184 0
-1136 -1139 -1163 -188 -149 184 0
-1137 -1140 -1164 -43 -38 18 0
-1137 -1141 -1164 -43 -149 18 0
-1137 -1142 -1164 -43 -187 18 0
-1138 -1140 -1164 -114 -38 18 0
-1138 -1141 -1164 -114 -149 18 0
-1138 -1142 -1164 -114 -187 18 0
-1139 -1140 -1164 -149 -38 18 0
-1139 -1141 -1164 -149 18 0
-1139 -1142 -1164 -149 -187 18 0
-1137 -1140 -1165 -43 -38 28 0
-1137 -1141 -1165 -43 -149 28 0
-1137 -1142 -1165 -43 -187 28 0
-1138 -1140 -1165 -114 -38 28 0
-1138 -1141 -1165 -114 -149 28 0
-1138 -1142 -1165 -114 -187 28 0
-1139 -1140 -1165 -149 -38 28 0
-1139 -1141 -1165 -149 28 0
-1139 -1142 -1165 -149 -187 28 0
-1137 -1140 -1166 -43 -38 59 0
-1137 -1141 -1166 -43 -149 59 0
-1137 -1142 -1166 -43 -187 59 0
-1138 -1140 -1166 -114 -38 59 0
-1138 -1141 -1166 -114 -149 59 0
-1138 -1142 -1166 -114 -187 59 0
-1139 -1140 -1166 -149 -38 59 0
-1139 -1141 -1166 -149 59 0
-1139 -1142 -1166 -149 -187 59 0
-1140 -1143 -1167 -38 -68 83 0
-1140 -1144 -1167 -38 -118 83 0
-1140 -1145 -1167 -38 -156 83 0
-1141 -1143 -1167 -149 -68 83 0
-1141 -1144 -1167 -149 -118 83 0
-1141 -1145 -1167 -149 -156 83 0
-1142 -1143 -1167 -187 -68 83 0
-1142 -1144 -1167 -187 -118 83 0
-1142 -1145 -1167 -187 -156 83 0
-1140 -1143 -1168 -38 -68 102 0
-1140 -1144 -1168 -38 -118 102 0
-1140 -1145 -1168 -38 -156 102 0
-1141 -1143 -1168 -149 -68 102 0
-1141 -1144 -1168 -149 -118 102 0
-1141 -1145 -1168 -149 -156 102 0
-1142 -1143 -1168 -187 -68 102 0
-1142 -1144 -1168 -187 -118 102 0
-1142 -1145 -1168 -187 -156 102 0
-1140 -1143 -1169 -38 -68 127 0
-1140 -1144 -1169 -38 -118 127 0
-1140 -1145 -1169 -38 -156 127 0
-1141 -1143 -1169 -149 -68 127 0
-1141 -1144 -1169 -149 -118 127 0
-1141 -1145 -1169 -149 -156 127 0
-1142 -1143 -1169 -187 -68 127 0
-1142 -1144 -1169 -187 -118 127 0
-1142 -1145 -1169 -187 -156 127 0
-1146 -1149 -1170 -36 12 0
-1146 -1150 -1170 -36 -184 12 0
-1146 -1151 -1170 -36 -200 12 0
-1147 -1149 -1170 -42 -36 12 0
-1147 -1150 -1170 -42 -184 12 0
-1147 -1151 -1170 -42 -200 12 0
-1148 -1149 -1170 -135 -36 12 0
-1148 -1150 -1170 -135 -184 12 0
-1148 -1151 -1170 -135 -200 12 0
-1146 -1149 -1171 -36 26 0
-1146 -1150 -1171 -36 -184 26 0
-1146 -1151 -1171 -36 -200 26 0
-1147 -1149 -1171 -42 -36 26 0
-1147 -1150 -1171 -42 -184 26 0
-1147 -1151 -1171 -42 -200 26 0
-1148 -1149 -1171 -135 -36 26 0
-1148 -1150 -1171 -135 -184 26 0
-1148 -1151 -1171 -135 -200 26 0
-1146 -1149 -1172 -36 48 0
-1146 -1150 -1172 -36 -184 48 0
-1146 -1151 -1172 -36 -200 48 0
-1147 -1149 -1172 -42 -36 48 0
-1147 -1150 -1172 -42 -184 48 0
-1147 -1151 -1172 -42 -200 48 0
-1148 -1149 -1172 -135 -36 48 0
-1148 -1150 -1172 -135 -184 48 0
-1148 -1151 -1172 -135 -200 48 0
-1149 -1152 -1173 -36 -80 6 0
-1149 -1153 -1173 -36 -93 6 0
-1149 -1154 -1173 -36 -113 6 0
-1150 -1152 -1173 -184 -80 6 0
-1150 -1153 -1173 -184 -93 6 0
-1150 -1154 -1173 -184 -113 6 0
-1151 -1152 -1173 -200 -80 6 0
-1151 -1153 -1173 -200 -93 6 0
-1151 -1154 -1173 -200 -113 6 0
-1149 -1152 -1174 -36 -80 15 0
-1149 -1153 -1174 -36 -93 15 0
-1149 -1154 -1174 -36 -113 15 0
-1150 -1152 -1174 -184 -80 15 0
-1150 -1153 -1174 -184 -93 15 0
-1150 -1154 -1174 -184 -113 15 0
-1151 -1152 -1174 -200 -80 15 0
-1151 -1153 -1174 -200 -93 15 0
-1151 -1154 -1174 -200 -113 15 0
-1149 -1152 -1175 -36 -80 153 0
-1149 -1153 -1175 -36 -93 153 0
-1149 -1154 -1175 -36 -113 153 0
-1150 -1152 -1175 -184 -80 153 0
-1150 -1153 -1175 -184 -93 153 0
-1150 -1154 -1175 -184 -113 153 0
-1151 -1152 -1175 -200 -80 153 0
-1151 -1153 -1175 -200 -93 153 0
-1151 -1154 -1175 -200 -113 153 0
-1152 -1155 -1176 -80 -62 56 0
-1152 -1156 -1176 -80 -103 56 0
-1152 -1157 -1176 -80 -193 56 0
-1153 -1155 -1176 -93 -62 56 0
-1153 -1156 -1176 -93 -103 56 0
-1153 -1157 -1176 -93 -193 56 0
-1154 -1155 -1176 -113 -62 56 0
-1154 -1156 -1176 -113 -103 56 0
-1154 -1157 -1176 -113 -193 56 0
-1152 -1155 -1177 -80 -62 175 0
-1152 -1156 -1177 -80 -103 175 0
-1152 -1157 -1177 -80 -193 175 0
-1153 -1155 -1177 -93 -62 175 0
-1153 -1156 -1177 -93 -103 175 0
-1153 -1157 -1177 -93 -193 175 0
-1154 -1155 -1177 -113 -62 175 0
-1154 -1156 -1177 -113 -103 175 0
-1154 -1157 -1177 -113 -193 175 0
-1152 -1155 -1178 -80 -62 193 0
-1152 -1156 -1178 -80 -103 193 0
-1153 -1155 -1178 -93 -62 193 0
-1153 -1156 -1178 -93 -103 193 0
-1154 -1155 -1178 -113 -62 193 0
-1154 -1156 -1178 -113 -103 193 0
-1155 -1158 -1179 -62 -30 9 0
-1155 -1159 -1179 -62 -53 9 0
-1155 -1160 -1179 -62 -184 9 0
-1156 -1158 -1179 -103 -30 9 0
-1156 -1159 -1179 -103 -53 9 0
-1156 -1160 -1179 -103 -184 9 0
-1157 -1158 -1179 -193 -30 9 0
-1157 -1159 -1179 -193 -53 9 0
-1157 -1160 -1179 -193 -184 9 0
-1155 -1158 -1180 -62 -30 127 0
-1155 -1159 -1180 -62 -53 127 0
-1155 -1160 -1180 -62 -184 127 0
-1156 -1158 -1180 -103 -30 127 0
-1156 -1159 -1180 -103 -53 127 0
-1156 -1160 -1180 -103 -184 127 0
-1157 -1158 -1180 -193 -30 127 0
-1157 -1159 -1180 -193 -53 127 0
-1157 -1160 -1180 -193 -184 127 0
-1155 -1158 -1181 -62 -30 181 0
-1155 -1159 -1181 -62 -53 181 0
-1155 -1160 -1181 -62 -184 181 0
-1156 -1158 -1181 -103 -30 181 0
-1156 -1159 -1181 -103 -53 181 0
-1156 -1160 -1181 -103 -184 181 0
-1157 -1158 -1181 -193 -30 181 0
-1157 -1159 -1181 -193 -53 181 0
-1157 -1160 -1181 -193 -184 181 0
-1158 -1161 -1182 -30 -79 136 0
-1158 -1162 -1182 -30 -175 136 0
-1158 -1163 -1182 -30 -184 136 0
-1159 -1161 -1182 -53 -79 136 0
-1159 -1162 -1182 -53 -175 136 0
-1159 -1163 -1182 -53 -184 136 0
-1160 -1161 -1182 -184 -79 136 0
-1160 -1162 -1182 -184 -175 136 0
-1160 -1163 -1182 -184 136 0
-1158 -1161 -1183 -30 -79 157 0
-1158 -1162 -1183 -30 -175 157 0
-1158 -1163 -1183 -30 -184 157 0
-1159 -1161 -1183 -53 -79 157 0
-1159 -1162 -1183 -53 -175 157 0
-1159 -1163 -1183 -53 -184 157 0
-1160 -1161 -1183 -184 -79 157 0
-1160 -1162 -1183 -184 -175 157 0
-1160 -1163 -1183 -184 157 0
-1158 -1161 -1184 -30 -79 186 0
-1158 -1162 -1184 -30 -175 186 0
-1158 -1163 -1184 -30 -184 186 0
-1159 -1161 -1184 -53 -79 186 0
-1159 -1162 -1184 -53 -175 186 0
-1159 -1163 -1184 -53 -184 186 0
-1160 -1161 -1184 -184 -79 186 0
-1160 -1162 -1184 -184 -175 186 0
-1160 -1163 -1184 -184 186 0
-1161 -1164 -1185 -79 -18 88 0
-1161 -1165 -1185 -79 -28 88 0
-1161 -1166 -1185 -79 -59 88 0
-1162 -1164 -1185 -175 -18 88 0
-1162 -1165 -1185 -175 -28 88 0
-1162 -1166 -1185 -175 -59 88 0
-1163 -1164 -1185 -184 -18 88 0
-1163 -1165 -1185 -184 -28 88 0
-1163 -1166 -1185 -184 -59 88 0
-1161 -1164 -1186 -79 -18 114 0
-1161 -1165 -1186 -79 -28 114 0
-1161 -1166 -1186 -79 -59 114 0
-1162 -1164 -1186 -175 -18 114 0
-1162 -1165 -1186 -175 -28 114 0
-1162 -1166 -1186 -175 -59 114 0
-1163 -1164 -1186 -184 -18 114 0
-1163 -1165 -1186 -184 -28 114 0
-1163 -1166 -1186 -184 -59 114 0
-1161 -1164 -1187 -79 -18 170 0
-1161 -1165 -1187 -79 -28 170 0
-1161 -1166 -1187 -79 -59 170 0
-1162 -1164 -1187 -175 -18 170 0
-1162 -1165 -1187 -175 -28 170 0
-1162 -1166 -1187 -175 -59 170 0
-1163 -1164 -1187 -184 -18 170 0
-1163 -1165 -1187 -184 -28 170 0
-1163 -1166 -1187 -184 -59 170 0
-1164 -1167 -1188 -18 -83 31 0
-1164 -1168 -1188 -18 -102 31 0
-1164 -1169 -1188 -18 -127 31 0
-1165 -1167 -1188 -28 -83 31 0
-1165 -1168 -1188 -28 -102 31 0
-1165 -1169 -1188 -28 -127 31 0
-1166 -1167 -1188 -59 -83 31 0
-1166 -1168 -1188 -59 -102 31 0
-1166 -1169 -1188 -59 -127 31 0
-1164 -1167 -1189 -18 -83 71 0
-1164 -1168 -1189 -18 -102 71 0
-1164 -1169 -1189 -18 -127 71 0
-1165 -1167 -1189 -28 -83 71 0
-1165 -1168 -1189 -28 -102 71 0
-1165 -1169 -1189 -28 -127 71 0
-1166 -1167 -1189 -59 -83 71 0
-1166 -1168 -1189 -59 -102 71 0
-1166 -1169 -1189 -59 -127 71 0
-1164 -1167 -1190 -18 -83 157 0
-1164 -1168 -1190 -18 -102 157 0
-1164 -1169 -1190 -18 -127 157 0
-1165 -1167 -1190 -28 -83 157 0
-1165 -1168 -1190 -28 -102 157 0
-1165 -1169 -1190 -28 -127 157 0
-1166 -1167 -1190 -59 -83 157 0
-1166 -1168 -1190 -59 -102 157 0
-1166 -1169 -1190 -59 -127 157 0
-1170 -1173 -1191 -12 -6 25 0
-1170 -1174 -1191 -12 -15 25 0
-1170 -1175 -1191 -12 -153 25 0
-1171 -1173 -1191 -26 -6 25 0
-1171 -1174 -1191 -26 -15 25 0
-1171 -1175 -1191 -26 -153 25 0
-1172 -1173 -1191 -48 -6 25 0
-1172 -1174 -1191 -48 -15 25 0
-1172 -1175 -1191 -48 -153 25 0
-1170 -1173 -1192 -12 -6 45 0
-1170 -1174 -1192 -12 -15 45 0
-1170 -1175 -1192 -12 -153 45 0
-1171 -1173 -1192 -26 -6 45 0
-1171 -1174 -1192 -26 -15 45 0
-1171 -1175 -1192 -26 -153 45 0
-1172 -1173 -1192 -48 -6 45 0
-1172 -1174 -1192 -48 -15 45 0
-1172 -1175 -1192 -48 -153 45 0
-1170 -1173 -1193 -12 -6 178 0
-1170 -1174 -1193 -12 -15 178 0
-1170 -1175 -1193 -12 -153 178 0
-1171 -1173 -1193 -26 -6 178 0
-1171 -1174 -1193 -26 -15 178 0
-1171 -1175 -1193 -26 -153 178 0
-1172 -1173 -1193 -48 -6 178 0
-1172 -1174 -1193 -48 -15 178 0
-1172 -1175 -1193 -48 -153 178 0
-1173 -1176 -1194 -6 -56 57 0
-1173 -1177 -1194 -6 -175 57 0
-1173 -1178 -1194 -6 -193 57 0
-1174 -1176 -1194 -15 -56 57 0
-1174 -1177 -1194 -15 -175 57 0
-1174 -1178 -1194 -15 -193 57 0
-1175 -1176 -1194 -153 -56 57 0
-1175 -1177 -1194 -153 -175 57 0
-1175 -1178 -1194 -153 -193 57 0
-1173 -1176 -1195 -6 -56 60 0
-1173 -1177 -1195 -6 -175 60 0
-1173 -1178 -1195 -6 -193 60 0
-1174 -1176 -1195 -15 -56 60 0
-1174 -1177 -1195 -15 -175 60 0
-1174 -1178 -1195 -15 -193 60 0
-1175 -1176 -1195 -153 -56 60 0
-1175 -1177 -1195 -153 -175 60 0
-1175 -1178 -1195 -153 -193 60 0
-1173 -1176 -1196 -6 -56 103 0
-1173 -1177 -1196 -6 -175 103 0
-1173 -1178 -1196 -6 -193 103 0
-1174 -1176 -1196 -15 -56 103 0
-1174 -1177 -1196 -15 -175 103 0
-1174 -1178 -1196 -15 -193 103 0
-1175 -1176 -1196 -153 -56 103 0
-1175 -1177 -1196 -153 -175 103 0
-1175 -1178 -1196 -153 -193 103 0
-1176 -1179 -1197 -56 -9 97 0
-1176 -1180 -1197 -56 -127 97 0
-1176 -1181 -1197 -56 -181 97 0
-1177 -1179 -1197 -175 -9 97 0
-1177 -1180 -1197 -175 -127 97 0
-1177 -1181 -1197 -175 -181 97 0
-1178 -1179 -1197 -193 -9 97 0
-1178 -1180 -1197 -193 -127 97 0
-1178 -1181 -1197 -193 -181 97 0
-1176 -1179 -1198 -56 -9 116 0
-1176 -1180 -1198 -56 -127 116 0
-1176 -1181 -1198 -56 -181 116 0
-1177 -1179 -1198 -175 -9 116 0
-1177 -1180 -1198 -175 -127 116 0
-1177 -1181 -1198 -175 -181 116 0
-1178 -1179 -1198 -193 -9 116 0
-1178 -1180 -1198 -193 -127 116 0
-1178 -1181 -1198 -193 -181 116 0
-1176 -1179 -1199 -56 -9 127 0
-1176 -1181 -1199 -56 -181 127 0
-1177 -1179 -1199 -175 -9 127 0
-1177 -1181 -1199 -175 -181 127 0
-1178 -1179 -1199 -193 -9 127 0
-1178 -1181 -1199 -193 -181 127 0
-1179 -1182 -1200 -9 -136 44 0
-1179 -1183 -1200 -9 -157 44 0
-1179 -1184 -1200 -9 -186 44 0
-1180 -1182 -1200 -127 -136 44 0
-1180 -1183 -1200 -127 -157 44 0
-1180 -1184 -1200 -127 -186 44 0
-1181 -1182 -1200 -181 -136 44 0
-1181 -1183 -1200 -181 -157 44 0
-1181 -1184 -1200 -181 -186 44 0
-1179 -1182 -1201 -9 -136 60 0
-1179 -1183 -1201 -9 -157 60 0
-1179 -1184 -1201 -9 -186 60 0
-1180 -1182 -1201 -127 -136 60 0
-1180 -1183 -1201 -127 -157 60 0
-1180 -1184 -1201 -127 -186 60 0
-1181 -1182 -1201 -181 -136 60 0
-1181 -1183 -1201 -181 -157 60 0
-1181 -1184 -1201 -181 -186 60 0
-1179 -1182 -1202 -9 -136 193 0
-1179 -1183 -1202 -9 -157 193 0
-1179 -1184 -1202 -9 -186 193 0
-1180 -1182 -1202 -127 -136 193 0
-1180 -1183 -1202 -127 -157 193 0
-1180 -1184 -1202 -127 -186 193 0
-1181 -1182 -1202 -181 -136 193 0
-1181 -1183 -1202 -181 -157 193 0
-1181 -1184 -1202 -181 -186 193 0
-1182 -1185 -1203 -136 -88 61 0
-1182 -1186 -1203 -136 -114 61 0
-1182 -1187 -1203 -136 -170 61 0
-1183 -1185 -1203 -157 -88 61 0
-1183 -1186 -1203 -157 -114 61 0
-1183 -1187 -1203 -157 -170 61 0
-1184 -1185 -1203 -186 -88 61 0
-1184 -1186 -1203 -186 -114 61 0
-1184 -1187 -1203 -186 -170 61 0
-1182 -1185 -1204 -136 -88 73 0
-1182 -1186 -1204 -136 -114 73 0
-1182 -1187 -1204 -136 -170 73 0
-1183 -1185 -1204 -157 -88 73 0
-1183 -1186 -1204 -157 -114 73 0
-1183 -1187 -1204 -157 -170 73 0
-1184 -1185 -1204 -186 -88 73 0
-1184 -1186 -1204 -186 -114 73 0
-1184 -1187 -1204 -186 -170 73 0
-1182 -1185 -1205 -136 -88 119 0
-1182 -1186 -1205 -136 -114 119 0
-1182 -1187 -1205 -136 -170 119 0
-1183 -1185 -1205 -157 -88 119 0
-1183 -1186 -1205 -157 -114 119 0
-1183 -1187 -1205 -157 -170 119 0
-1184 -1185 -1205 -186 -88 119 0
-1184 -1186 -1205 -186 -114 119 0
-1184 -1187 -1205 -186 -170 119 0
-1185 -1188 -1206 -88 -31 100 0
-1185 -1189 -1206 -88 -71 100 0
-1185 -1190 -1206 -88 -157 100 0
-1186 -1188 -1206 -114 -31 100 0
-1186 -1189 -1206 -114 -71 100 0
-1186 -1190 -1206 -114 -157 100 0
-1187 -1188 -1206 -170 -31 100 0
-1187 -1189 -1206 -170 -71 100 0
-1187 -1190 -1206 -170 -157 100 0
-1185 -1188 -1207 -88 -31 141 0
-1185 -1189 -1207 -88 -71 141 0
-1185 -1190 -1207 -88 -157 141 0
-1186 -1188 -1207 -114 -31 141 0
-1186 -1189 -1207 -114 -71 141 0
-1186 -1190 -1207 -114 -157 141 0
-1187 -1188 -1207 -170 -31 141 0
-1187 -1189 -1207 -170 -71 141 0
-1187 -1190 -1207 -170 -157 141 0
-1185 -1188 -1208 -88 -31 149 0
-1185 -1189 -1208 -88 -71 149 0
-1185 -1190 -1208 -88 -157 149 0
-1186 -1188 -1208 -114 -31 149 0
-1186 -1189 -1208 -114 -71 149 0
-1186 -1190 -1208 -114 -157 149 0
-1187 -1188 -1208 -170 -31 149 0
-1187 -1189 -1208 -170 -71 149 0
-1187 -1190 -1208 -170 -157 149 0
-1191 -1194 -1209 -25 -57 55 0
-1191 -1195 -1209 -25 -60 55 0
-1191 -1196 -1209 -25 -103 55 0
-1192 -1194 -1209 -45 -57 55 0
-1192 -1195 -1209 -45 -60 55 0
-1192 -1196 -1209 -45 -103 55 0
-1193 -1194 -1209 -178 -57 55 0
-1193 -1195 -1209 -178 -60 55 0
-1193 -1196 -1209 -178 -103 55 0
-1191 -1194 -1210 -25 -57 116 0
-1191 -1195 -1210 -25 -60 116 0
-1191 -1196 -1210 -25 -103 116 0
-1192 -1194 -1210 -45 -57 116 0
-1192 -1195 -1210 -45 -60 116 0
-1192 -1196 -1210 -45 -103 116 0
-1193 -1194 -1210 -178 -57 116 0
-1193 -1195 -1210 -178 -60 116 0
-1193 -1196 -1210 -178 -103 116 0
-1191 -1194 -1211 -25 -57 184 0
-1191 -1195 -1211 -25 -60 184 0
-1191 -1196 -1211 -25 -103 184 0
-1192 -1194 -1211 -45 -57 184 0
-1192 -1195 -1211 -45 -60 184 0
-1192 -1196 -1211 -45 -103 184 0
-1193 -1194 -1211 -178 -57 184 0
-1193 -1195 -1211 -178 -60 184 0
-1193 -1196 -1211 -178 -103 184 0
-1194 -1197 -1212 -57 -97 67 0
-1194 -1198 -1212 -57 -116 67 0
-1194 -1199 -1212 -57 -127 67 0
-1195 -1197 -1212 -60 -97 67 0
-1195 -1198 -1212 -60 -116 67 0
-1195 -1199 -1212 -60 -127 67 0
-1196 -1197 -1212 -103 -97 67 0
-1196 -1198 -1212 -103 -116 67 0
-1196 -1199 -1212 -103 -127 67 0
-1194 -1197 -1213 -57 -97 85 0
-1194 -1198 -1213 -57 -116 85 0
-1194 -1199 -1213 -57 -127 85 0
-1195 -1197 -1213 -60 -97 85 0
-1195 -1198 -1213 -60 -116 85 0
-1195 -1199 -1213 -60 -127 85 0
-1196 -1197 -1213 -103 -97 85 0
-1196 -1198 -1213 -103 -116 85 0
-1196 -1199 -1213 -103 -127 85 0
-1194 -1197 -1214 -57 -97 128 0
-1194 -1198 -1214 -57 -116 128 0
-1194 -1199 -1214 -57 -127 128 0
-1195 -1197 -1214 -60 -97 128 0
-1195 -1198 -1214 -60 -116 128 0
-1195 -1199 -1214 -60 -127 128 0
-1196 -1197 -1214 -103 -97 128 0
-1196 -1198 -1214 -103 -116 128 0
-1196 -1199 -1214 -103 -127 128 0
-1197 -1200 -1215 -97 -44 29 0
-1197 -1201 -1215 -97 -60 29 0
-1197 -1202 -1215 -97 -193 29 0
-1198 -1200 -1215 -116 -44 29 0
-1198 -1201 -1215 -116 -60 29 0
-1198 -1202 -1215 -116 -193 29 0
-1199 -1200 -1215 -127 -44 29 0
-1199 -1201 -1215 -127 -60 29 0
-1199 -1202 -1215 -127 -193 29 0
-1197 -1200 -1216 -97 -44 55 0
-1197 -1201 -1216 -97 -60 55 0
-1197 -1202 -1216 -97 -193 55 0
-1198 -1200 -1216 -116 -44 55 0
-1198 -1201 -1216 -116 -60 55 0
-1198 -1202 -1216 -116 -193 55 0
-1199 -1200 -1216 -127 -44 55 0
-1199 -1201 -1216 -127 -60 55 0
-1199 -1202 -1216 -127 -193 55 0
-1197 -1200 -1217 -97 -44 152 0
-1197 -1201 -1217 -97 -60 152 0
-1197 -1202 -1217 -97 -193 152 0
-1198 -1200 -1217 -116 -44 152 0
-1198 -1201 -1217 -116 -60 152 0
-1198 -1202 -1217 -116 -193 152 0
-1199 -1200 -1217 -127 -44 152 0
-1199 -1201 -1217 -127 -60 152 0
-1199 -1202 -1217 -127 -193 152 0
-1200 -1203 -1218 -44 -61 4 0
-1200 -1204 -1218 -44 -73 4 0
-1200 -1205 -1218 -44 -119 4 0
-1201 -1203 -1218 -60 -61 4 0
-1201 -1204 -1218 -60 -73 4 0
-1201 -1205 -1218 -60 -119 4 0
-1202 -1203 -1218 -193 -61 4 0
-1202 -1204 -1218 -193 -73 4 0
-1202 -1205 -1218 -193 -119 4 0
-1200 -1203 -1219 -44 -61 12 0
-1200 -1204 -1219 -44 -73 12 0
-1200 -1205 -1219 -44 -119 12 0
-1201 -1203 -1219 -60 -61 12 0
-1201 -1204 -1219 -60 -73 12 0
-1201 -1205 -1219 -60 -119 12 0
-1202 -1203 -1219 -193 -61 12 0
-1202 -1204 -1219 -193 -73 12 0
-1202 -1205 -1219 -193 -119 12 0
-1200 -1203 -1220 -44 -61 21 0
-1200 -1204 -1220 -44 -73 21 0
-1200 -1205 -1220 -44 -119 21 0
-1201 -1203 -1220 -60 -61 21 0
-1201 -1204 -1220 -60 -73 21 0
-1201 -1205 -1220 -60 -119 21 0
-1202 -1203 -1220 -193 -61 21 0
-1202 -1204 -1220 -193 -73 21 0
-1202 -1205 -1220 -193 -119 21 0
-1203 -1206 -1221 -61 -100 2 0
-1203 -1207 -1221 -61 -141 2 0
-1203 -1208 -1221 -61 -149 2 0
-1204 -1206 -1221 -73 -100 2 0
-1204 -1207 -1221 -73 -141 2 0
-1204 -1208 -1221 -73 -149 2 0
-1205 -1206 -1221 -119 -100 2 0
-1205 -1207 -1221 -119 -141 2 0
-1205 -1208 -1221 -119 -149 2 0
-1203 -1206 -1222 -61 -100 82 0
-1203 -1207 -1222 -61 -141 82 0
-1203 -1208 -1222 -61 -149 82 0
-1204 -1206 -1222 -73 -100 82 0
-1204 -1207 -1222 -73 -141 82 0
-1204 -1208 -1222 -73 -149 82 0
-1205 -1206 -1222 -119 -100 82 0
-1205 -1207 -1222 -119 -141 82 0
-1205 -1208 -1222 -119 -149 82 0
-1203 -1206 -1223 -61 -100 123 0
-1203 -1207 -1223 -61 -141 123 0
-1203 -1208 -1223 -61 -149 123 0
-1204 -1206 -1223 -73 -100 123 0
-1204 -1207 -1223 -73 -141 123 0
-1204 -1208 -1223 -73 -149 123 0
-1205 -1206 -1223 -119 -100 123 0
-1205 -1207 -1223 -119 -141 123 0
-1205 -1208 -1223 -119 -149 123 0
-1209 -1212 -1224 -55 -67 74 0
-1209 -1213 -1224 -55 -85 74 0
-1209 -1214 -1224 -55 -128 74 0
-1210 -1212 -1224 -116 -67 74 0
-1210 -1213 -1224 -116 -85 74 0
-1210 -1214 -1224 -116 -128 74 0
-1211 -1212 -1224 -184 -67 74 0
-1211 -1213 -1224 -184 -85 74 0
-1211 -1214 -1224 -184 -128 74 0
-1209 -1212 -1225 -55 -67 99 0
-1209 -1213 -1225 -55 -85 99 0
-1209 -1214 -1225 -55 -128 99 0
-1210 -1212 -1225 -116 -67 99 0
-1210 -1213 -1225 -116 -85 99 0
-1210 -1214 -1225 -116 -128 99 0
-1211 -1212 -1225 -184 -67 99 0
-1211 -1213 -1225 -184 -85 99 0
-1211 -1214 -1225 -184 -128 99 0
-1209 -1212 -1226 -55 -67 149 0
-1209 -1213 -1226 -55 -85 149 0
-1209 -1214 -1226 -55 -128 149 0
-1210 -1212 -1226 -116 -67 149 0
-1210 -1213 -1226 -116 -85 149 0
-1210 -1214 -1226 -116 -128 149 0
-1211 -1212 -1226 -184 -67 149 0
-1211 -1213 -1226 -184 -85 149 0
-1211 -1214 -1226 -184 -128 149 0
-1212 -1215 -1227 -67 -29 41 0
-1212 -1216 -1227 -67 -55 41 0
-1212 -1217 -1227 -67 -152 41 0
-1213 -1215 -1227 -85 -29 41 0
-1213 -1216 -1227 -85 -55 41 0
-1213 -1217 -1227 -85 -152 41 0
-1214 -1215 -1227 -128 -29 41 0
-1214 -1216 -1227 -128 -55 41 0
-1214 -1217 -1227 -128 -152 41 0
-1212 -1215 -1228 -67 -29 51 0
-1212 -1216 -1228 -67 -55 51 0
-1212 -1217 -1228 -67 -152 51 0
-1213 -1215 -1228 -85 -29 51 0
-1213 -1216 -1228 -85 -55 51 0
-1213 -1217 -1228 -85 -152 51 0
-1214 -1215 -1228 -128 -29 51 0
-1214 -1216 -1228 -128 -55 51 0
-1214 -1217 -1228 -128 -152 51 0
-1212 -1215 -1229 -67 -29 103 0
-1212 -1216 -1229 -67 -55 103 0
-1212 -1217 -1229 -67 -152 103 0
-1213 -1215 -1229 -85 -29 103 0
-1213 -1216 -1229 -85 -55 103 0
-1213 -1217 -1229 -85 -152 103 0
-1214 -1215 -1229 -128 -29 103 0
-1214 -1216 -1229 -128 -55 103 0
-1214 -1217 -1229 -128 -152 103 0
-1215 -1218 -1230 -29 -4 39 0
-1215 -1219 -1230 -29 -12 39 0
-1215 -1220 -1230 -29 -21 39 0
-1216 -1218 -1230 -55 -4 39 0
-1216 -1219 -1230 -55 -12 39 0
-1216 -1220 -1230 -55 -21 39 0
-1217 -1218 -1230 -152 -4 39 0
-1217 -1219 -1230 -152 -12 39 0
-1217 -1220 -1230 -152 -21 39 0
-1215 -1218 -1231 -29 -4 166 0
-1215 -1219 -1231 -29 -12 166 0
-1215 -1220 -1231 -29 -21 166 0
-1216 -1218 -1231 -55 -4 166 0
-1216 -1219 -1231 -55 -12 166 0
-1216 -1220 -1231 -55 -21 166 0
-1217 -1218 -1231 -152 -4 166 0
-1217 -1219 -1231 -152 -12 166 0
-1217 -1220 -1231 -152 -21 166 0
-1215 -1218 -1232 -29 -4 195 0
-1215 -1219 -1232 -29 -12 195 0
-1215 -1220 -1232 -29 -21 195 0
-1216 -1218 -1232 -55 -4 195 0
-1216 -1219 -1232 -55 -12 195 0
-1216 -1220 -1232 -55 -21 195 0
-1217 -1218 -1232 -152 -4 195 0
-1217 -1219 -1232 -152 -12 195 0
-1217 -1220 -1232 -152 -21 195 0
-1219 -1221 -1233 -12 -2 4 0
-1219 -1222 -1233 -12 -82 4 0
-1219 -1223 -1233 -12 -123 4 0
-1220 -1221 -1233 -21 -2 4 0
-1220 -1222 -1233 -21 -82 4 0
-1220 -1223 -1233 -21 -123 4 0
-1218 -1221 -1234 -4 -2 8 0
-1218 -1222 -1234 -4 -82 8 0
-1218 -1223 -1234 -4 -123 8 0
-1219 -1221 -1234 -12 -2 8 0
-1219 -1222 -1234 -12 -82 8 0
-1219 -1223 -1234 -12 -123 8 0
-1220 -1221 -1234 -21 -2 8 0
-1220 -1222 -1234 -21 -82 8 0
-1220 -1223 -1234 -21 -123 8 0
-1218 -1221 -1235 -4 -2 100 0
-1218 -1222 -1235 -4 -82 100 0
-1218 -1223 -1235 -4 -123 100 0
-1219 -1221 -1235 -12 -2 100 0
-1219 -1222 -1235 -12 -82 100 0
-1219 -1223 -1235 -12 -123 100 0
-1220 -1221 -1235 -21 -2 100 0
-1220 -1222 -1235 -21 -82 100 0
-1220 -1223 -1235 -21 -123 100 0
-1224 -1227 -1236 -74 -41 38 0
-1224 -1228 -1236 -74 -51 38 0
-1224 -1229 -1236 -74 -103 38 0
-1225 -1227 -1236 -99 -41 38 0
-1225 -1228 -1236 -99 -51 38 0
-1225 -1229 -1236 -99 -103 38 0
-1226 -1227 -1236 -149 -41 38 0
-1226 -1228 -1236 -149 -51 38 0
-1226 -1229 -1236 -149 -103 38 0
-1224 -1227 -1237 -74 -41 139 0
-1224 -1228 -1237 -74 -51 139 0
-1224 -1229 -1237 -74 -103 139 0
-1225 -1227 -1237 -99 -41 139 0
-1225 -1228 -1237 -99 -51 139 0
-1225 -1229 -1237 -99 -103 139 0
-1226 -1227 -1237 -149 -41 139 0
-1226 -1228 -1237 -149 -51 139 0
-1226 -1229 -1237 -149 -103 139 0
-1224 -1227 -1238 -74 -41 171 0
-1224 -1228 -1238 -74 -51 171 0
-1224 -1229 -1238 -74 -103 171 0
-1225 -1227 -1238 -99 -41 171 0
-1225 -1228 -1238 -99 -51 171 0
-1225 -1229 -1238 -99 -103 171 0
-1226 -1227 -1238 -149 -41 171 0
-1226 -1228 -1238 -149 -51 171 0
-1226 -1229 -1238 -149 -103 171 0
-1227 -1230 -1239 -41 -39 15 0
-1227 -1231 -1239 -41 -166 15 0
-1227 -1232 -1239 -41 -195 15 0
-1228 -1230 -1239 -51 -39 15 0
-1228 -1231 -1239 -51 -166 15 0
-1228 -1232 -1239 -51 -195 15 0
-1229 -1230 -1239 -103 -39 15 0
-1229 -1231 -1239 -103 -166 15 0
-1229 -1232 -1239 -103 -195 15 0
-1227 -1230 -1240 -41 -39 98 0
-1227 -1231 -1240 -41 -166 98 0
-1227 -1232 -1240 -41 -195 98 0
-1228 -1230 -1240 -51 -39 98 0
-1228 -1231 -1240 -51 -166 98 0
-1228 -1232 -1240 -51 -195 98 0
-1229 -1230 -1240 -103 -39 98 0
-1229 -1231 -1240 -103 -166 98 0
-1229 -1232 -1240 -103 -195 98 0
-1227 -1230 -1241 -41 -39 145 0
-1227 -1231 -1241 -41 -166 145 0
-1227 -1232 -1241 -41 -195 145 0
-1228 -1230 -1241 -51 -39 145 0
-1228 -1231 -1241 -51 -166 145 0
-1228 -1232 -1241 -51 -195 145 0
-1229 -1230 -1241 -103 -39 145 0
-1229 -1231 -1241 -103 -166 145 0
-1229 -1232 -1241 -103 -195 145 0
-1230 -1233 -1242 -39 -4 21 0
-1230 -1234 -1242 -39 -8 21 0
-1230 -1235 -1242 -39 -100 21 0
-1231 -1233 -1242 -166 -4 21 0
-1231 -1234 -1242 -166 -8 21 0
-1231 -1235 -1242 -166 -100 21 0
-1232 -1233 -1242 -195 -4 21 0
-1232 -1234 -1242 -195 -8 21 0
-1232 -1235 -1242 -195 -100 21 0
-1230 -1233 -1243 -39 -4 34 0
-1230 -1234 -1243 -39 -8 34 0
-1230 -1235 -1243 -39 -100 34 0
-1231 -1233 -1243 -166 -4 34 0
-1231 -1234 -1243 -166 -8 34 0
-1231 -1235 -1243 -166 -100 34 0
-1232 -1233 -1243 -195 -4 34 0
-1232 -1234 -1243 -195 -8 34 0
-1232 -1235 -1243 -195 -100 34 0
-1230 -1233 -1244 -39 -4 66 0
-1230 -1234 -1244 -39 -8 66 0
-1230 -1235 -1244 -39 -100 66 0
-1231 -1233 -1244 -166 -4 66 0
-1231 -1234 -1244 -166 -8 66 0
-1231 -1235 -1244 -166 -100 66 0
-1232 -1233 -1244 -195 -4 66 0
-1232 -1234 -1244 -195 -8 66 0
-1232 -1235 -1244 -195 -100 66 0
-1236 -1239 -1245 -38 -15 78 0
-1236 -1240 -1245 -38 -98 78 0
-1236 -1241 -1245 -38 -145 78 0
-1237 -1239 -1245 -139 -15 78 0
-1237 -1240 -1245 -139 -98 78 0
-1237 -1241 -1245 -139 -145 78 0
-1238 -1239 -1245 -171 -15 78 0
-1238 -1240 -1245 -171 -98 78 0
-1238 -1241 -1245 -171 -145 78 0
-1236 -1239 -1246 -38 -15 119 0
-1236 -1240 -1246 -38 -98 119 0
-1236 -1241 -1246 -38 -145 119 0
-1237 -1239 -1246 -139 -15 119 0
-1237 -1240 -1246 -139 -98 119 0
-1237 -1241 -1246 -139 -145 119 0
-1238 -1239 -1246 -171 -15 119 0
-1238 -1240 -1246 -171 -98 119 0
-1238 -1241 -1246 -171 -145 119 0
-1236 -1239 -1247 -38 -15 167 0
-1236 -1240 -1247 -38 -98 167 0
-1236 -1241 -1247 -38 -145 167 0
-1237 -1239 -1247 -139 -15 167 0
-1237 -1240 -1247 -139 -98 167 0
-1237 -1241 -1247 -139 -145 167 0
-1238 -1239 -1247 -171 -15 167 0
-1238 -1240 -1247 -171 -98 167 0
-1238 -1241 -1247 -171 -145 167 0
-1239 -1242 -1248 -15 -21 4 0
-1239 -1243 -1248 -15 -34 4 0
-1239 -1244 -1248 -15 -66 4 0
-1240 -1242 -1248 -98 -21 4 0
-1240 -1243 -1248 -98 -34 4 0
-1240 -1244 -1248 -98 -66 4 0
-1241 -1242 -1248 -145 -21 4 0
-1241 -1243 -1248 -145 -34 4 0
-1241 -1244 -1248 -145 -66 4 0
-1239 -1242 -1249 -15 -21 10 0
-1239 -1243 -1249 -15 -34 10 0
-1239 -1244 -1249 -15 -66 10 0
-1240 -1242 -1249 -98 -21 10 0
-1240 -1243 -1249 -98 -34 10 0
-1240 -1244 -1249 -98 -66 10 0
-1241 -1242 -1249 -145 -21 10 0
-1241 -1243 -1249 -145 -34 10 0
-1241 -1244 -1249 -145 -66 10 0
-1239 -1242 -1250 -15 -21 138 0
-1239 -1243 -1250 -15 -34 138 0
-1239 -1244 -1250 -15 -66 138 0
-1240 -1242 -1250 -98 -21 138 0
-1240 -1243 -1250 -98 -34 138 0
-1240 -1244 -1250 -98 -66 138 0
-1241 -1242 -1250 -145 -21 138 0
-1241 -1243 -1250 -145 -34 138 0
-1241 -1244 -1250 -145 -66 138 0
-1245 -1248 -1251 -78 -4 16 0
-1245 -1249 -1251 -78 -10 16 0
-1245 -1250 -1251 -78 -138 16 0
-1246 -1248 -1251 -119 -4 16 0
-1246 -1249 -1251 -119 -10 16 0
-1246 -1250 -1251 -119 -138 16 0
-1247 -1248 -1251 -167 -4 16 0
-1247 -1249 -1251 -167 -10 16 0
-1247 -1250 -1251 -167 -138 16 0
-1245 -1248 -1252 -78 -4 34 0
-1245 -1249 -1252 -78 -10 34 0
-1245 -1250 -1252 -78 -138 34 0
-1246 -1248 -1252 -119 -4 34 0
-1246 -1249 -1252 -119 -10 34 0
-1246 -1250 -1252 -119 -138 34 0
-1247 -1248 -1252 -167 -4 34 0
-1247 -1249 -1252 -167 -10 34 0
-1247 -1250 -1252 -167 -138 34 0
-1245 -1248 -1253 -78 -4 135 0
-1245 -1249 -1253 -78 -10 135 0
-1245 -1250 -1253 -78 -138 135 0
-1246 -1248 -1253 -119 -4 135 0
-1246 -1249 -1253 -119 -10 135 0
-1246 -1250 -1253 -119 -138 135 0
-1247 -1248 -1253 -167 -4 135 0
-1247 -1249 -1253 -167 -10 135 0
-1247 -1250 -1253 -167 -138 135 0
-1251 -16 0
-1252 -34 0
-1253 -135 0
