c description: Ordering principle
c generator: CNFgen (0.9.5)
c copyright: (C) 2012-2026 Massimo Lauria <massimo.lauria@uniroma1.it>
c url: https://massimolauria.net/cnfgen
c command line: cnfgen op 20
c
p cnf 380 7050
20 39 58 77 96 115 134 153 172 191 210 229 248 267 286 305 324 343 362 0
1 40 59 78 97 116 135 154 173 192 211 230 249 268 287 306 325 344 363 0
2 21 60 79 98 117 136 155 174 193 212 231 250 269 288 307 326 345 364 0
3 22 41 80 99 118 137 156 175 194 213 232 251 270 289 308 327 346 365 0
4 23 42 61 100 119 138 157 176 195 214 233 252 271 290 309 328 347 366 0
5 24 43 62 81 120 139 158 177 196 215 234 253 272 291 310 329 348 367 0
6 25 44 63 82 101 140 159 178 197 216 235 254 273 292 311 330 349 368 0
7 26 45 64 83 102 121 160 179 198 217 236 255 274 293 312 331 350 369 0
8 27 46 65 84 103 122 141 180 199 218 237 256 275 294 313 332 351 370 0
9 28 47 66 85 104 123 142 161 200 219 238 257 276 295 314 333 352 371 0
10 29 48 67 86 105 124 143 162 181 220 239 258 277 296 315 334 353 372 0
11 30 49 68 87 106 125 144 163 182 201 240 259 278 297 316 335 354 373 0
12 31 50 69 88 107 126 145 164 183 202 221 260 279 298 317 336 355 374 0
13 32 51 70 89 108 127 146 165 184 203 222 241 280 299 318 337 356 375 0
14 33 52 71 90 109 128 147 166 185 204 223 242 261 300 319 338 357 376 0
15 34 53 72 91 110 129 148 167 186 205 224 243 262 281 320 339 358 377 0
16 35 54 73 92 111 130 149 168 187 206 225 244 263 282 301 340 359 378 0
17 36 55 74 93 112 131 150 169 188 207 226 245 264 283 302 321 360 379 0
18 37 56 75 94 113 132 151 170 189 208 227 246 265 284 303 322 341 380 0
19 38 57 76 95 114 133 152 171 190 209 228 247 266 285 304 323 342 361 0
-1 -21 2 0
-1 -22 3 0
-1 -23 4 0
-1 -24 5 0
-1 -25 6 0
-1 -26 7 0
-1 -27 8 0
-1 -28 9 0
-1 -29 10 0
-1 -30 11 0
-1 -31 12 0
-1 -32 13 0
-1 -33 14 0
-1 -34 15 0
-1 -35 16 0
-1 -36 17 0
-1 -37 18 0
-1 -38 19 0
-2 -40 1 0
-2 -41 3 0
-2 -42 4 0
-2 -43 5 0
-2 -44 6 0
-2 -45 7 0
-2 -46 8 0
-2 -47 9 0
-2 -48 10 0
-2 -49 11 0
-2 -50 12 0
-2 -51 13 0
-2 -52 14 0
-2 -53 15 0
-2 -54 16 0
-2 -55 17 0
-2 -56 18 0
-2 -57 19 0
-3 -59 1 0
-3 -60 2 0
-3 -61 4 0
-3 -62 5 0
-3 -63 6 0
-3 -64 7 0
-3 -65 8 0
-3 -66 9 0
-3 -67 10 0
-3 -68 11 0
-3 -69 12 0
-3 -70 13 0
-3 -71 14 0
-3 -72 15 0
-3 -73 16 0
-3 -74 17 0
-3 -75 18 0
-3 -76 19 0
-4 -78 1 0
-4 -79 2 0
-4 -80 3 0
-4 -81 5 0
-4 -82 6 0
-4 -83 7 0
-4 -84 8 0
-4 -85 9 0
-4 -86 10 0
-4 -87 11 0
-4 -88 12 0
-4 -89 13 0
-4 -90 14 0
-4 -91 15 0
-4 -92 16 0
-4 -93 17 0
-4 -94 18 0
-4 -95 19 0
-5 -97 1 0
-5 -98 2 0
-5 -99 3 0
-5 -100 4 0
-5 -101 6 0
-5 -102 7 0
-5 -103 8 0
-5 -104 9 0
-5 -105 10 0
-5 -106 11 0
-5 -107 12 0
-5 -108 13 0
-5 -109 14 0
-5 -110 15 0
-5 -111 16 0
-5 -112 17 0
-5 -113 18 0
-5 -114 19 0
-6 -116 1 0
-6 -117 2 0
-6 -118 3 0
-6 -119 4 0
-6 -120 5 0
-6 -121 7 0
-6 -122 8 0
-6 -123 9 0
-6 -124 10 0
-6 -125 11 0
-6 -126 12 0
-6 -127 13 0
-6 -128 14 0
-6 -129 15 0
-6 -130 16 0
-6 -131 17 0
-6 -132 18 0
-6 -133 19 0
-7 -135 1 0
-7 -136 2 0
-7 -137 3 0
-7 -138 4 0
-7 -139 5 0
-7 -140 6 0
-7 -141 8 0
-7 -142 9 0
-7 -143 10 0
-7 -144 11 0
-7 -145 12 0
-7 -146 13 0
-7 -147 14 0
-7 -148 15 0
-7 -149 16 0
-7 -150 17 0
-7 -151 18 0
-7 -152 19 0
-8 -154 1 0
-8 -155 2 0
-8 -156 3 0
-8 -157 4 0
-8 -158 5 0
-8 -159 6 0
-8 -160 7 0
-8 -161 9 0
-8 -162 10 0
-8 -163 11 0
-8 -164 12 0
-8 -165 13 0
-8 -166 14 0
-8 -167 15 0
-8 -168 16 0
-8 -169 17 0
-8 -170 18 0
-8 -171 19 0
-9 -173 1 0
-9 -174 2 0
-9 -175 3 0
-9 -176 4 0
-9 -177 5 0
-9 -178 6 0
-9 -179 7 0
-9 -180 8 0
-9 -181 10 0
-9 -182 11 0
-9 -183 12 0
-9 -184 13 0
-9 -185 14 0
-9 -186 15 0
-9 -187 16 0
-9 -188 17 0
-9 -189 18 0
-9 -190 19 0
-10 -192 1 0
-10 -193 2 0
-10 -194 3 0
-10 -195 4 0
-10 -196 5 0
-10 -197 6 0
-10 -198 7 0
-10 -199 8 0
-10 -200 9 0
-10 -201 11 0
-10 -202 12 0
-10 -203 13 0
-10 -204 14 0
-10 -205 15 0
-10 -206 16 0
-10 -207 17 0
-10 -208 18 0
-10 -209 19 0
-11 -211 1 0
-11 -212 2 0
-11 -213 3 0
-11 -214 4 0
-11 -215 5 0
-11 -216 6 0
-11 -217 7 0
-11 -218 8 0
-11 -219 9 0
-11 -220 10 0
-11 -221 12 0
-11 -222 13 0
-11 -223 14 0
-11 -224 15 0
-11 -225 16 0
-11 -226 17 0
-11 -227 18 0
-11 -228 19 0
-12 -230 1 0
-12 -231 2 0
-12 -232 3 0
-12 -233 4 0
-12 -234 5 0
-12 -235 6 0
-12 -236 7 0
-12 -237 8 0
-12 -238 9 0
-12 -239 10 0
-12 -240 11 0
-12 -241 13 0
-12 -242 14 0
-12 -243 15 0
-12 -244 16 0
-12 -245 17 0
-12 -246 18 0
-12 -247 19 0
-13 -249 1 0
-13 -250 2 0
-13 -251 3 0
-13 -252 4 0
-13 -253 5 0
-13 -254 6 0
-13 -255 7 0
-13 -256 8 0
-13 -257 9 0
-13 -258 10 0
-13 -259 11 0
-13 -260 12 0
-13 -261 14 0
-13 -262 15 0
-13 -263 16 0
-13 -264 17 0
-13 -265 18 0
-13 -266 19 0
-14 -268 1 0
-14 -269 2 0
-14 -270 3 0
-14 -271 4 0
-14 -272 5 0
-14 -273 6 0
-14 -274 7 0
-14 -275 8 0
-14 -276 9 0
-14 -277 10 0
-14 -278 11 0
-14 -279 12 0
-14 -280 13 0
-14 -281 15 0
-14 -282 16 0
-14 -283 17 0
-14 -284 18 0
-14 -285 19 0
-15 -287 1 0
-15 -288 2 0
-15 -289 3 0
-15 -290 4 0
-15 -291 5 0
-15 -292 6 0
-15 -293 7 0
-15 -294 8 0
-15 -295 9 0
-15 -296 10 0
-15 -297 11 0
-15 -298 12 0
-15 -299 13 0
-15 -300 14 0
-15 -301 16 0
-15 -302 17 0
-15 -303 18 0
-15 -304 19 0
-16 -306 1 0
-16 -307 2 0
-16 -308 3 0
-16 -309 4 0
-16 -310 5 0
-16 -311 6 0
-16 -312 7 0
-16 -313 8 0
-16 -314 9 0
-16 -315 10 0
-16 -316 11 0
-16 -317 12 0
-16 -318 13 0
-16 -319 14 0
-16 -320 15 0
-16 -321 17 0
-16 -322 18 0
-16 -323 19 0
-17 -325 1 0
-17 -326 2 0
-17 -327 3 0
-17 -328 4 0
-17 -329 5 0
-17 -330 6 0
-17 -331 7 0
-17 -332 8 0
-17 -333 9 0
-17 -334 10 0
-17 -335 11 0
-17 -336 12 0
-17 -337 13 0
-17 -338 14 0
-17 -339 15 0
-17 -340 16 0
-17 -341 18 0
-17 -342 19 0
-18 -344 1 0
-18 -345 2 0
-18 -346 3 0
-18 -347 4 0
-18 -348 5 0
-18 -349 6 0
-18 -350 7 0
-18 -351 8 0
-18 -352 9 0
-18 -353 10 0
-18 -354 11 0
-18 -355 12 0
-18 -356 13 0
-18 -357 14 0
-18 -358 15 0
-18 -359 16 0
-18 -360 17 0
-18 -361 19 0
-19 -363 1 0
-19 -364 2 0
-19 -365 3 0
-19 -366 4 0
-19 -367 5 0
-19 -368 6 0
-19 -369 7 0
-19 -370 8 0
-19 -371 9 0
-19 -372 10 0
-19 -373 11 0
-19 -374 12 0
-19 -375 13 0
-19 -376 14 0
-19 -377 15 0
-19 -378 16 0
-19 -379 17 0
-19 -380 18 0
-20 -2 21 0
-20 -3 22 0
-20 -4 23 0
-20 -5 24 0
-20 -6 25 0
-20 -7 26 0
-20 -8 27 0
-20 -9 28 0
-20 -10 29 0
-20 -11 30 0
-20 -12 31 0
-20 -13 32 0
-20 -14 33 0
-20 -15 34 0
-20 -16 35 0
-20 -17 36 0
-20 -18 37 0
-20 -19 38 0
-21 -39 20 0
-21 -41 22 0
-21 -42 23 0
-21 -43 24 0
-21 -44 25 0
-21 -45 26 0
-21 -46 27 0
-21 -47 28 0
-21 -48 29 0
-21 -49 30 0
-21 -50 31 0
-21 -51 32 0
-21 -52 33 0
-21 -53 34 0
-21 -54 35 0
-21 -55 36 0
-21 -56 37 0
-21 -57 38 0
-22 -58 20 0
-22 -60 21 0
-22 -61 23 0
-22 -62 24 0
-22 -63 25 0
-22 -64 26 0
-22 -65 27 0
-22 -66 28 0
-22 -67 29 0
-22 -68 30 0
-22 -69 31 0
-22 -70 32 0
-22 -71 33 0
-22 -72 34 0
-22 -73 35 0
-22 -74 36 0
-22 -75 37 0
-22 -76 38 0
-23 -77 20 0
-23 -79 21 0
-23 -80 22 0
-23 -81 24 0
-23 -82 25 0
-23 -83 26 0
-23 -84 27 0
-23 -85 28 0
-23 -86 29 0
-23 -87 30 0
-23 -88 31 0
-23 -89 32 0
-23 -90 33 0
-23 -91 34 0
-23 -92 35 0
-23 -93 36 0
-23 -94 37 0
-23 -95 38 0
-24 -96 20 0
-24 -98 21 0
-24 -99 22 0
-24 -100 23 0
-24 -101 25 0
-24 -102 26 0
-24 -103 27 0
-24 -104 28 0
-24 -105 29 0
-24 -106 30 0
-24 -107 31 0
-24 -108 32 0
-24 -109 33 0
-24 -110 34 0
-24 -111 35 0
-24 -112 36 0
-24 -113 37 0
-24 -114 38 0
-25 -115 20 0
-25 -117 21 0
-25 -118 22 0
-25 -119 23 0
-25 -120 24 0
-25 -121 26 0
-25 -122 27 0
-25 -123 28 0
-25 -124 29 0
-25 -125 30 0
-25 -126 31 0
-25 -127 32 0
-25 -128 33 0
-25 -129 34 0
-25 -130 35 0
-25 -131 36 0
-25 -132 37 0
-25 -133 38 0
-26 -134 20 0
-26 -136 21 0
-26 -137 22 0
-26 -138 23 0
-26 -139 24 0
-26 -140 25 0
-26 -141 27 0
-26 -142 28 0
-26 -143 29 0
-26 -144 30 0
-26 -145 31 0
-26 -146 32 0
-26 -147 33 0
-26 -148 34 0
-26 -149 35 0
-26 -150 36 0
-26 -151 37 0
-26 -152 38 0
-27 -153 20 0
-27 -155 21 0
-27 -156 22 0
-27 -157 23 0
-27 -158 24 0
-27 -159 25 0
-27 -160 26 0
-27 -161 28 0
-27 -162 29 0
-27 -163 30 0
-27 -164 31 0
-27 -165 32 0
-27 -166 33 0
-27 -167 34 0
-27 -168 35 0
-27 -169 36 0
-27 -170 37 0
-27 -171 38 0
-28 -172 20 0
-28 -174 21 0
-28 -175 22 0
-28 -176 23 0
-28 -177 24 0
-28 -178 25 0
-28 -179 26 0
-28 -180 27 0
-28 -181 29 0
-28 -182 30 0
-28 -183 31 0
-28 -184 32 0
-28 -185 33 0
-28 -186 34 0
-28 -187 35 0
-28 -188 36 0
-28 -189 37 0
-28 -190 38 0
-29 -191 20 0
-29 -193 21 0
-29 -194 22 0
-29 -195 23 0
-29 -196 24 0
-29 -197 25 0
-29 -198 26 0
-29 -199 27 0
-29 -200 28 0
-29 -201 30 0
-29 -202 31 0
-29 -203 32 0
-29 -204 33 0
-29 -205 34 0
-29 -206 35 0
-29 -207 36 0
-29 -208 37 0
-29 -209 38 0
-30 -210 20 0
-30 -212 21 0
-30 -213 22 0
-30 -214 23 0
-30 -215 24 0
-30 -216 25 0
-30 -217 26 0
-30 -218 27 0
-30 -219 28 0
-30 -220 29 0
-30 -221 31 0
-30 -222 32 0
-30 -223 33 0
-30 -224 34 0
-30 -225 35 0
-30 -226 36 0
-30 -227 37 0
-30 -228 38 0
-31 -229 20 0
-31 -231 21 0
-31 -232 22 0
-31 -233 23 0
-31 -234 24 0
-31 -235 25 0
-31 -236 26 0
-31 -237 27 0
-31 -238 28 0
-31 -239 29 0
-31 -240 30 0
-31 -241 32 0
-31 -242 33 0
-31 -243 34 0
-31 -244 35 0
-31 -245 36 0
-31 -246 37 0
-31 -247 38 0
-32 -248 20 0
-32 -250 21 0
-32 -251 22 0
-32 -252 23 0
-32 -253 24 0
-32 -254 25 0
-32 -255 26 0
-32 -256 27 0
-32 -257 28 0
-32 -258 29 0
-32 -259 30 0
-32 -260 31 0
-32 -261 33 0
-32 -262 34 0
-32 -263 35 0
-32 -264 36 0
-32 -265 37 0
-32 -266 38 0
-33 -267 20 0
-33 -269 21 0
-33 -270 22 0
-33 -271 23 0
-33 -272 24 0
-33 -273 25 0
-33 -274 26 0
-33 -275 27 0
-33 -276 28 0
-33 -277 29 0
-33 -278 30 0
-33 -279 31 0
-33 -280 32 0
-33 -281 34 0
-33 -282 35 0
-33 -283 36 0
-33 -284 37 0
-33 -285 38 0
-34 -286 20 0
-34 -288 21 0
-34 -289 22 0
-34 -290 23 0
-34 -291 24 0
-34 -292 25 0
-34 -293 26 0
-34 -294 27 0
-34 -295 28 0
-34 -296 29 0
-34 -297 30 0
-34 -298 31 0
-34 -299 32 0
-34 -300 33 0
-34 -301 35 0
-34 -302 36 0
-34 -303 37 0
-34 -304 38 0
-35 -305 20 0
-35 -307 21 0
-35 -308 22 0
-35 -309 23 0
-35 -310 24 0
-35 -311 25 0
-35 -312 26 0
-35 -313 27 0
-35 -314 28 0
-35 -315 29 0
-35 -316 30 0
-35 -317 31 0
-35 -318 32 0
-35 -319 33 0
-35 -320 34 0
-35 -321 36 0
-35 -322 37 0
-35 -323 38 0
-36 -324 20 0
-36 -326 21 0
-36 -327 22 0
-36 -328 23 0
-36 -329 24 0
-36 -330 25 0
-36 -331 26 0
-36 -332 27 0
-36 -333 28 0
-36 -334 29 0
-36 -335 30 0
-36 -336 31 0
-36 -337 32 0
-36 -338 33 0
-36 -339 34 0
-36 -340 35 0
-36 -341 37 0
-36 -342 38 0
-37 -343 20 0
-37 -345 21 0
-37 -346 22 0
-37 -347 23 0
-37 -348 24 0
-37 -349 25 0
-37 -350 26 0
-37 -351 27 0
-37 -352 28 0
-37 -353 29 0
-37 -354 30 0
-37 -355 31 0
-37 -356 32 0
-37 -357 33 0
-37 -358 34 0
-37 -359 35 0
-37 -360 36 0
-37 -361 38 0
-38 -362 20 0
-38 -364 21 0
-38 -365 22 0
-38 -366 23 0
-38 -367 24 0
-38 -368 25 0
-38 -369 26 0
-38 -370 27 0
-38 -371 28 0
-38 -372 29 0
-38 -373 30 0
-38 -374 31 0
-38 -375 32 0
-38 -376 33 0
-38 -377 34 0
-38 -378 35 0
-38 -379 36 0
-38 -380 37 0
-39 -1 40 0
-39 -3 41 0
-39 -4 42 0
-39 -5 43 0
-39 -6 44 0
-39 -7 45 0
-39 -8 46 0
-39 -9 47 0
-39 -10 48 0
-39 -11 49 0
-39 -12 50 0
-39 -13 51 0
-39 -14 52 0
-39 -15 53 0
-39 -16 54 0
-39 -17 55 0
-39 -18 56 0
-39 -19 57 0
-40 -20 39 0
-40 -22 41 0
-40 -23 42 0
-40 -24 43 0
-40 -25 44 0
-40 -26 45 0
-40 -27 46 0
-40 -28 47 0
-40 -29 48 0
-40 -30 49 0
-40 -31 50 0
-40 -32 51 0
-40 -33 52 0
-40 -34 53 0
-40 -35 54 0
-40 -36 55 0
-40 -37 56 0
-40 -38 57 0
-41 -58 39 0
-41 -59 40 0
-41 -61 42 0
-41 -62 43 0
-41 -63 44 0
-41 -64 45 0
-41 -65 46 0
-41 -66 47 0
-41 -67 48 0
-41 -68 49 0
-41 -69 50 0
-41 -70 51 0
-41 -71 52 0
-41 -72 53 0
-41 -73 54 0
-41 -74 55 0
-41 -75 56 0
-41 -76 57 0
-42 -77 39 0
-42 -78 40 0
-42 -80 41 0
-42 -81 43 0
-42 -82 44 0
-42 -83 45 0
-42 -84 46 0
-42 -85 47 0
-42 -86 48 0
-42 -87 49 0
-42 -88 50 0
-42 -89 51 0
-42 -90 52 0
-42 -91 53 0
-42 -92 54 0
-42 -93 55 0
-42 -94 56 0
-42 -95 57 0
-43 -96 39 0
-43 -97 40 0
-43 -99 41 0
-43 -100 42 0
-43 -101 44 0
-43 -102 45 0
-43 -103 46 0
-43 -104 47 0
-43 -105 48 0
-43 -106 49 0
-43 -107 50 0
-43 -108 51 0
-43 -109 52 0
-43 -110 53 0
-43 -111 54 0
-43 -112 55 0
-43 -113 56 0
-43 -114 57 0
-44 -115 39 0
-44 -116 40 0
-44 -118 41 0
-44 -119 42 0
-44 -120 43 0
-44 -121 45 0
-44 -122 46 0
-44 -123 47 0
-44 -124 48 0
-44 -125 49 0
-44 -126 50 0
-44 -127 51 0
-44 -128 52 0
-44 -129 53 0
-44 -130 54 0
-44 -131 55 0
-44 -132 56 0
-44 -133 57 0
-45 -134 39 0
-45 -135 40 0
-45 -137 41 0
-45 -138 42 0
-45 -139 43 0
-45 -140 44 0
-45 -141 46 0
-45 -142 47 0
-45 -143 48 0
-45 -144 49 0
-45 -145 50 0
-45 -146 51 0
-45 -147 52 0
-45 -148 53 0
-45 -149 54 0
-45 -150 55 0
-45 -151 56 0
-45 -152 57 0
-46 -153 39 0
-46 -154 40 0
-46 -156 41 0
-46 -157 42 0
-46 -158 43 0
-46 -159 44 0
-46 -160 45 0
-46 -161 47 0
-46 -162 48 0
-46 -163 49 0
-46 -164 50 0
-46 -165 51 0
-46 -166 52 0
-46 -167 53 0
-46 -168 54 0
-46 -169 55 0
-46 -170 56 0
-46 -171 57 0
-47 -172 39 0
-47 -173 40 0
-47 -175 41 0
-47 -176 42 0
-47 -177 43 0
-47 -178 44 0
-47 -179 45 0
-47 -180 46 0
-47 -181 48 0
-47 -182 49 0
-47 -183 50 0
-47 -184 51 0
-47 -185 52 0
-47 -186 53 0
-47 -187 54 0
-47 -188 55 0
-47 -189 56 0
-47 -190 57 0
-48 -191 39 0
-48 -192 40 0
-48 -194 41 0
-48 -195 42 0
-48 -196 43 0
-48 -197 44 0
-48 -198 45 0
-48 -199 46 0
-48 -200 47 0
-48 -201 49 0
-48 -202 50 0
-48 -203 51 0
-48 -204 52 0
-48 -205 53 0
-48 -206 54 0
-48 -207 55 0
-48 -208 56 0
-48 -209 57 0
-49 -210 39 0
-49 -211 40 0
-49 -213 41 0
-49 -214 42 0
-49 -215 43 0
-49 -216 44 0
-49 -217 45 0
-49 -218 46 0
-49 -219 47 0
-49 -220 48 0
-49 -221 50 0
-49 -222 51 0
-49 -223 52 0
-49 -224 53 0
-49 -225 54 0
-49 -226 55 0
-49 -227 56 0
-49 -228 57 0
-50 -229 39 0
-50 -230 40 0
-50 -232 41 0
-50 -233 42 0
-50 -234 43 0
-50 -235 44 0
-50 -236 45 0
-50 -237 46 0
-50 -238 47 0
-50 -239 48 0
-50 -240 49 0
-50 -241 51 0
-50 -242 52 0
-50 -243 53 0
-50 -244 54 0
-50 -245 55 0
-50 -246 56 0
-50 -247 57 0
-51 -248 39 0
-51 -249 40 0
-51 -251 41 0
-51 -252 42 0
-51 -253 43 0
-51 -254 44 0
-51 -255 45 0
-51 -256 46 0
-51 -257 47 0
-51 -258 48 0
-51 -259 49 0
-51 -260 50 0
-51 -261 52 0
-51 -262 53 0
-51 -263 54 0
-51 -264 55 0
-51 -265 56 0
-51 -266 57 0
-52 -267 39 0
-52 -268 40 0
-52 -270 41 0
-52 -271 42 0
-52 -272 43 0
-52 -273 44 0
-52 -274 45 0
-52 -275 46 0
-52 -276 47 0
-52 -277 48 0
-52 -278 49 0
-52 -279 50 0
-52 -280 51 0
-52 -281 53 0
-52 -282 54 0
-52 -283 55 0
-52 -284 56 0
-52 -285 57 0
-53 -286 39 0
-53 -287 40 0
-53 -289 41 0
-53 -290 42 0
-53 -291 43 0
-53 -292 44 0
-53 -293 45 0
-53 -294 46 0
-53 -295 47 0
-53 -296 48 0
-53 -297 49 0
-53 -298 50 0
-53 -299 51 0
-53 -300 52 0
-53 -301 54 0
-53 -302 55 0
-53 -303 56 0
-53 -304 57 0
-54 -305 39 0
-54 -306 40 0
-54 -308 41 0
-54 -309 42 0
-54 -310 43 0
-54 -311 44 0
-54 -312 45 0
-54 -313 46 0
-54 -314 47 0
-54 -315 48 0
-54 -316 49 0
-54 -317 50 0
-54 -318 51 0
-54 -319 52 0
-54 -320 53 0
-54 -321 55 0
-54 -322 56 0
-54 -323 57 0
-55 -324 39 0
-55 -325 40 0
-55 -327 41 0
-55 -328 42 0
-55 -329 43 0
-55 -330 44 0
-55 -331 45 0
-55 -332 46 0
-55 -333 47 0
-55 -334 48 0
-55 -335 49 0
-55 -336 50 0
-55 -337 51 0
-55 -338 52 0
-55 -339 53 0
-55 -340 54 0
-55 -341 56 0
-55 -342 57 0
-56 -343 39 0
-56 -344 40 0
-56 -346 41 0
-56 -347 42 0
-56 -348 43 0
-56 -349 44 0
-56 -350 45 0
-56 -351 46 0
-56 -352 47 0
-56 -353 48 0
-56 -354 49 0
-56 -355 50 0
-56 -356 51 0
-56 -357 52 0
-56 -358 53 0
-56 -359 54 0
-56 -360 55 0
-56 -361 57 0
-57 -362 39 0
-57 -363 40 0
-57 -365 41 0
-57 -366 42 0
-57 -367 43 0
-57 -368 44 0
-57 -369 45 0
-57 -370 46 0
-57 -371 47 0
-57 -372 48 0
-57 -373 49 0
-57 -374 50 0
-57 -375 51 0
-57 -376 52 0
-57 -377 53 0
-57 -378 54 0
-57 -379 55 0
-57 -380 56 0
-58 -1 59 0
-58 -2 60 0
-58 -4 61 0
-58 -5 62 0
-58 -6 63 0
-58 -7 64 0
-58 -8 65 0
-58 -9 66 0
-58 -10 67 0
-58 -11 68 0
-58 -12 69 0
-58 -13 70 0
-58 -14 71 0
-58 -15 72 0
-58 -16 73 0
-58 -17 74 0
-58 -18 75 0
-58 -19 76 0
-59 -20 58 0
-59 -21 60 0
-59 -23 61 0
-59 -24 62 0
-59 -25 63 0
-59 -26 64 0
-59 -27 65 0
-59 -28 66 0
-59 -29 67 0
-59 -30 68 0
-59 -31 69 0
-59 -32 70 0
-59 -33 71 0
-59 -34 72 0
-59 -35 73 0
-59 -36 74 0
-59 -37 75 0
-59 -38 76 0
-60 -39 58 0
-60 -40 59 0
-60 -42 61 0
-60 -43 62 0
-60 -44 63 0
-60 -45 64 0
-60 -46 65 0
-60 -47 66 0
-60 -48 67 0
-60 -49 68 0
-60 -50 69 0
-60 -51 70 0
-60 -52 71 0
-60 -53 72 0
-60 -54 73 0
-60 -55 74 0
-60 -56 75 0
-60 -57 76 0
-61 -77 58 0
-61 -78 59 0
-61 -79 60 0
-61 -81 62 0
-61 -82 63 0
-61 -83 64 0
-61 -84 65 0
-61 -85 66 0
-61 -86 67 0
-61 -87 68 0
-61 -88 69 0
-61 -89 70 0
-61 -90 71 0
-61 -91 72 0
-61 -92 73 0
-61 -93 74 0
-61 -94 75 0
-61 -95 76 0
-62 -96 58 0
-62 -97 59 0
-62 -98 60 0
-62 -100 61 0
-62 -101 63 0
-62 -102 64 0
-62 -103 65 0
-62 -104 66 0
-62 -105 67 0
-62 -106 68 0
-62 -107 69 0
-62 -108 70 0
-62 -109 71 0
-62 -110 72 0
-62 -111 73 0
-62 -112 74 0
-62 -113 75 0
-62 -114 76 0
-63 -115 58 0
-63 -116 59 0
-63 -117 60 0
-63 -119 61 0
-63 -120 62 0
-63 -121 64 0
-63 -122 65 0
-63 -123 66 0
-63 -124 67 0
-63 -125 68 0
-63 -126 69 0
-63 -127 70 0
-63 -128 71 0
-63 -129 72 0
-63 -130 73 0
-63 -131 74 0
-63 -132 75 0
-63 -133 76 0
-64 -134 58 0
-64 -135 59 0
-64 -136 60 0
-64 -138 61 0
-64 -139 62 0
-64 -140 63 0
-64 -141 65 0
-64 -142 66 0
-64 -143 67 0
-64 -144 68 0
-64 -145 69 0
-64 -146 70 0
-64 -147 71 0
-64 -148 72 0
-64 -149 73 0
-64 -150 74 0
-64 -151 75 0
-64 -152 76 0
-65 -153 58 0
-65 -154 59 0
-65 -155 60 0
-65 -157 61 0
-65 -158 62 0
-65 -159 63 0
-65 -160 64 0
-65 -161 66 0
-65 -162 67 0
-65 -163 68 0
-65 -164 69 0
-65 -165 70 0
-65 -166 71 0
-65 -167 72 0
-65 -168 73 0
-65 -169 74 0
-65 -170 75 0
-65 -171 76 0
-66 -172 58 0
-66 -173 59 0
-66 -174 60 0
-66 -176 61 0
-66 -177 62 0
-66 -178 63 0
-66 -179 64 0
-66 -180 65 0
-66 -181 67 0
-66 -182 68 0
-66 -183 69 0
-66 -184 70 0
-66 -185 71 0
-66 -186 72 0
-66 -187 73 0
-66 -188 74 0
-66 -189 75 0
-66 -190 76 0
-67 -191 58 0
-67 -192 59 0
-67 -193 60 0
-67 -195 61 0
-67 -196 62 0
-67 -197 63 0
-67 -198 64 0
-67 -199 65 0
-67 -200 66 0
-67 -201 68 0
-67 -202 69 0
-67 -203 70 0
-67 -204 71 0
-67 -205 72 0
-67 -206 73 0
-67 -207 74 0
-67 -208 75 0
-67 -209 76 0
-68 -210 58 0
-68 -211 59 0
-68 -212 60 0
-68 -214 61 0
-68 -215 62 0
-68 -216 63 0
-68 -217 64 0
-68 -218 65 0
-68 -219 66 0
-68 -220 67 0
-68 -221 69 0
-68 -222 70 0
-68 -223 71 0
-68 -224 72 0
-68 -225 73 0
-68 -226 74 0
-68 -227 75 0
-68 -228 76 0
-69 -229 58 0
-69 -230 59 0
-69 -231 60 0
-69 -233 61 0
-69 -234 62 0
-69 -235 63 0
-69 -236 64 0
-69 -237 65 0
-69 -238 66 0
-69 -239 67 0
-69 -240 68 0
-69 -241 70 0
-69 -242 71 0
-69 -243 72 0
-69 -244 73 0
-69 -245 74 0
-69 -246 75 0
-69 -247 76 0
-70 -248 58 0
-70 -249 59 0
-70 -250 60 0
-70 -252 61 0
-70 -253 62 0
-70 -254 63 0
-70 -255 64 0
-70 -256 65 0
-70 -257 66 0
-70 -258 67 0
-70 -259 68 0
-70 -260 69 0
-70 -261 71 0
-70 -262 72 0
-70 -263 73 0
-70 -264 74 0
-70 -265 75 0
-70 -266 76 0
-71 -267 58 0
-71 -268 59 0
-71 -269 60 0
-71 -271 61 0
-71 -272 62 0
-71 -273 63 0
-71 -274 64 0
-71 -275 65 0
-71 -276 66 0
-71 -277 67 0
-71 -278 68 0
-71 -279 69 0
-71 -280 70 0
-71 -281 72 0
-71 -282 73 0
-71 -283 74 0
-71 -284 75 0
-71 -285 76 0
-72 -286 58 0
-72 -287 59 0
-72 -288 60 0
-72 -290 61 0
-72 -291 62 0
-72 -292 63 0
-72 -293 64 0
-72 -294 65 0
-72 -295 66 0
-72 -296 67 0
-72 -297 68 0
-72 -298 69 0
-72 -299 70 0
-72 -300 71 0
-72 -301 73 0
-72 -302 74 0
-72 -303 75 0
-72 -304 76 0
-73 -305 58 0
-73 -306 59 0
-73 -307 60 0
-73 -309 61 0
-73 -310 62 0
-73 -311 63 0
-73 -312 64 0
-73 -313 65 0
-73 -314 66 0
-73 -315 67 0
-73 -316 68 0
-73 -317 69 0
-73 -318 70 0
-73 -319 71 0
-73 -320 72 0
-73 -321 74 0
-73 -322 75 0
-73 -323 76 0
-74 -324 58 0
-74 -325 59 0
-74 -326 60 0
-74 -328 61 0
-74 -329 62 0
-74 -330 63 0
-74 -331 64 0
-74 -332 65 0
-74 -333 66 0
-74 -334 67 0
-74 -335 68 0
-74 -336 69 0
-74 -337 70 0
-74 -338 71 0
-74 -339 72 0
-74 -340 73 0
-74 -341 75 0
-74 -342 76 0
-75 -343 58 0
-75 -344 59 0
-75 -345 60 0
-75 -347 61 0
-75 -348 62 0
-75 -349 63 0
-75 -350 64 0
-75 -351 65 0
-75 -352 66 0
-75 -353 67 0
-75 -354 68 0
-75 -355 69 0
-75 -356 70 0
-75 -357 71 0
-75 -358 72 0
-75 -359 73 0
-75 -360 74 0
-75 -361 76 0
-76 -362 58 0
-76 -363 59 0
-76 -364 60 0
-76 -366 61 0
-76 -367 62 0
-76 -368 63 0
-76 -369 64 0
-76 -370 65 0
-76 -371 66 0
-76 -372 67 0
-76 -373 68 0
-76 -374 69 0
-76 -375 70 0
-76 -376 71 0
-76 -377 72 0
-76 -378 73 0
-76 -379 74 0
-76 -380 75 0
-77 -1 78 0
-77 -2 79 0
-77 -3 80 0
-77 -5 81 0
-77 -6 82 0
-77 -7 83 0
-77 -8 84 0
-77 -9 85 0
-77 -10 86 0
-77 -11 87 0
-77 -12 88 0
-77 -13 89 0
-77 -14 90 0
-77 -15 91 0
-77 -16 92 0
-77 -17 93 0
-77 -18 94 0
-77 -19 95 0
-78 -20 77 0
-78 -21 79 0
-78 -22 80 0
-78 -24 81 0
-78 -25 82 0
-78 -26 83 0
-78 -27 84 0
-78 -28 85 0
-78 -29 86 0
-78 -30 87 0
-78 -31 88 0
-78 -32 89 0
-78 -33 90 0
-78 -34 91 0
-78 -35 92 0
-78 -36 93 0
-78 -37 94 0
-78 -38 95 0
-79 -39 77 0
-79 -40 78 0
-79 -41 80 0
-79 -43 81 0
-79 -44 82 0
-79 -45 83 0
-79 -46 84 0
-79 -47 85 0
-79 -48 86 0
-79 -49 87 0
-79 -50 88 0
-79 -51 89 0
-79 -52 90 0
-79 -53 91 0
-79 -54 92 0
-79 -55 93 0
-79 -56 94 0
-79 -57 95 0
-80 -58 77 0
-80 -59 78 0
-80 -60 79 0
-80 -62 81 0
-80 -63 82 0
-80 -64 83 0
-80 -65 84 0
-80 -66 85 0
-80 -67 86 0
-80 -68 87 0
-80 -69 88 0
-80 -70 89 0
-80 -71 90 0
-80 -72 91 0
-80 -73 92 0
-80 -74 93 0
-80 -75 94 0
-80 -76 95 0
-81 -96 77 0
-81 -97 78 0
-81 -98 79 0
-81 -99 80 0
-81 -101 82 0
-81 -102 83 0
-81 -103 84 0
-81 -104 85 0
-81 -105 86 0
-81 -106 87 0
-81 -107 88 0
-81 -108 89 0
-81 -109 90 0
-81 -110 91 0
-81 -111 92 0
-81 -112 93 0
-81 -113 94 0
-81 -114 95 0
-82 -115 77 0
-82 -116 78 0
-82 -117 79 0
-82 -118 80 0
-82 -120 81 0
-82 -121 83 0
-82 -122 84 0
-82 -123 85 0
-82 -124 86 0
-82 -125 87 0
-82 -126 88 0
-82 -127 89 0
-82 -128 90 0
-82 -129 91 0
-82 -130 92 0
-82 -131 93 0
-82 -132 94 0
-82 -133 95 0
-83 -134 77 0
-83 -135 78 0
-83 -136 79 0
-83 -137 80 0
-83 -139 81 0
-83 -140 82 0
-83 -141 84 0
-83 -142 85 0
-83 -143 86 0
-83 -144 87 0
-83 -145 88 0
-83 -146 89 0
-83 -147 90 0
-83 -148 91 0
-83 -149 92 0
-83 -150 93 0
-83 -151 94 0
-83 -152 95 0
-84 -153 77 0
-84 -154 78 0
-84 -155 79 0
-84 -156 80 0
-84 -158 81 0
-84 -159 82 0
-84 -160 83 0
-84 -161 85 0
-84 -162 86 0
-84 -163 87 0
-84 -164 88 0
-84 -165 89 0
-84 -166 90 0
-84 -167 91 0
-84 -168 92 0
-84 -169 93 0
-84 -170 94 0
-84 -171 95 0
-85 -172 77 0
-85 -173 78 0
-85 -174 79 0
-85 -175 80 0
-85 -177 81 0
-85 -178 82 0
-85 -179 83 0
-85 -180 84 0
-85 -181 86 0
-85 -182 87 0
-85 -183 88 0
-85 -184 89 0
-85 -185 90 0
-85 -186 91 0
-85 -187 92 0
-85 -188 93 0
-85 -189 94 0
-85 -190 95 0
-86 -191 77 0
-86 -192 78 0
-86 -193 79 0
-86 -194 80 0
-86 -196 81 0
-86 -197 82 0
-86 -198 83 0
-86 -199 84 0
-86 -200 85 0
-86 -201 87 0
-86 -202 88 0
-86 -203 89 0
-86 -204 90 0
-86 -205 91 0
-86 -206 92 0
-86 -207 93 0
-86 -208 94 0
-86 -209 95 0
-87 -210 77 0
-87 -211 78 0
-87 -212 79 0
-87 -213 80 0
-87 -215 81 0
-87 -216 82 0
-87 -217 83 0
-87 -218 84 0
-87 -219 85 0
-87 -220 86 0
-87 -221 88 0
-87 -222 89 0
-87 -223 90 0
-87 -224 91 0
-87 -225 92 0
-87 -226 93 0
-87 -227 94 0
-87 -228 95 0
-88 -229 77 0
-88 -230 78 0
-88 -231 79 0
-88 -232 80 0
-88 -234 81 0
-88 -235 82 0
-88 -236 83 0
-88 -237 84 0
-88 -238 85 0
-88 -239 86 0
-88 -240 87 0
-88 -241 89 0
-88 -242 90 0
-88 -243 91 0
-88 -244 92 0
-88 -245 93 0
-88 -246 94 0
-88 -247 95 0
-89 -248 77 0
-89 -249 78 0
-89 -250 79 0
-89 -251 80 0
-89 -253 81 0
-89 -254 82 0
-89 -255 83 0
-89 -256 84 0
-89 -257 85 0
-89 -258 86 0
-89 -259 87 0
-89 -260 88 0
-89 -261 90 0
-89 -262 91 0
-89 -263 92 0
-89 -264 93 0
-89 -265 94 0
-89 -266 95 0
-90 -267 77 0
-90 -268 78 0
-90 -269 79 0
-90 -270 80 0
-90 -272 81 0
-90 -273 82 0
-90 -274 83 0
-90 -275 84 0
-90 -276 85 0
-90 -277 86 0
-90 -278 87 0
-90 -279 88 0
-90 -280 89 0
-90 -281 91 0
-90 -282 92 0
-90 -283 93 0
-90 -284 94 0
-90 -285 95 0
-91 -286 77 0
-91 -287 78 0
-91 -288 79 0
-91 -289 80 0
-91 -291 81 0
-91 -292 82 0
-91 -293 83 0
-91 -294 84 0
-91 -295 85 0
-91 -296 86 0
-91 -297 87 0
-91 -298 88 0
-91 -299 89 0
-91 -300 90 0
-91 -301 92 0
-91 -302 93 0
-91 -303 94 0
-91 -304 95 0
-92 -305 77 0
-92 -306 78 0
-92 -307 79 0
-92 -308 80 0
-92 -310 81 0
-92 -311 82 0
-92 -312 83 0
-92 -313 84 0
-92 -314 85 0
-92 -315 86 0
-92 -316 87 0
-92 -317 88 0
-92 -318 89 0
-92 -319 90 0
-92 -320 91 0
-92 -321 93 0
-92 -322 94 0
-92 -323 95 0
-93 -324 77 0
-93 -325 78 0
-93 -326 79 0
-93 -327 80 0
-93 -329 81 0
-93 -330 82 0
-93 -331 83 0
-93 -332 84 0
-93 -333 85 0
-93 -334 86 0
-93 -335 87 0
-93 -336 88 0
-93 -337 89 0
-93 -338 90 0
-93 -339 91 0
-93 -340 92 0
-93 -341 94 0
-93 -342 95 0
-94 -343 77 0
-94 -344 78 0
-94 -345 79 0
-94 -346 80 0
-94 -348 81 0
-94 -349 82 0
-94 -350 83 0
-94 -351 84 0
-94 -352 85 0
-94 -353 86 0
-94 -354 87 0
-94 -355 88 0
-94 -356 89 0
-94 -357 90 0
-94 -358 91 0
-94 -359 92 0
-94 -360 93 0
-94 -361 95 0
-95 -362 77 0
-95 -363 78 0
-95 -364 79 0
-95 -365 80 0
-95 -367 81 0
-95 -368 82 0
-95 -369 83 0
-95 -370 84 0
-95 -371 85 0
-95 -372 86 0
-95 -373 87 0
-95 -374 88 0
-95 -375 89 0
-95 -376 90 0
-95 -377 91 0
-95 -378 92 0
-95 -379 93 0
-95 -380 94 0
-96 -1 97 0
-96 -2 98 0
-96 -3 99 0
-96 -4 100 0
-96 -6 101 0
-96 -7 102 0
-96 -8 103 0
-96 -9 104 0
-96 -10 105 0
-96 -11 106 0
-96 -12 107 0
-96 -13 108 0
-96 -14 109 0
-96 -15 110 0
-96 -16 111 0
-96 -17 112 0
-96 -18 113 0
-96 -19 114 0
-97 -20 96 0
-97 -21 98 0
-97 -22 99 0
-97 -23 100 0
-97 -25 101 0
-97 -26 102 0
-97 -27 103 0
-97 -28 104 0
-97 -29 105 0
-97 -30 106 0
-97 -31 107 0
-97 -32 108 0
-97 -33 109 0
-97 -34 110 0
-97 -35 111 0
-97 -36 112 0
-97 -37 113 0
-97 -38 114 0
-98 -39 96 0
-98 -40 97 0
-98 -41 99 0
-98 -42 100 0
-98 -44 101 0
-98 -45 102 0
-98 -46 103 0
-98 -47 104 0
-98 -48 105 0
-98 -49 106 0
-98 -50 107 0
-98 -51 108 0
-98 -52 109 0
-98 -53 110 0
-98 -54 111 0
-98 -55 112 0
-98 -56 113 0
-98 -57 114 0
-99 -58 96 0
-99 -59 97 0
-99 -60 98 0
-99 -61 100 0
-99 -63 101 0
-99 -64 102 0
-99 -65 103 0
-99 -66 104 0
-99 -67 105 0
-99 -68 106 0
-99 -69 107 0
-99 -70 108 0
-99 -71 109 0
-99 -72 110 0
-99 -73 111 0
-99 -74 112 0
-99 -75 113 0
-99 -76 114 0
-100 -77 96 0
-100 -78 97 0
-100 -79 98 0
-100 -80 99 0
-100 -82 101 0
-100 -83 102 0
-100 -84 103 0
-100 -85 104 0
-100 -86 105 0
-100 -87 106 0
-100 -88 107 0
-100 -89 108 0
-100 -90 109 0
-100 -91 110 0
-100 -92 111 0
-100 -93 112 0
-100 -94 113 0
-100 -95 114 0
-101 -115 96 0
-101 -116 97 0
-101 -117 98 0
-101 -118 99 0
-101 -119 100 0
-101 -121 102 0
-101 -122 103 0
-101 -123 104 0
-101 -124 105 0
-101 -125 106 0
-101 -126 107 0
-101 -127 108 0
-101 -128 109 0
-101 -129 110 0
-101 -130 111 0
-101 -131 112 0
-101 -132 113 0
-101 -133 114 0
-102 -134 96 0
-102 -135 97 0
-102 -136 98 0
-102 -137 99 0
-102 -138 100 0
-102 -140 101 0
-102 -141 103 0
-102 -142 104 0
-102 -143 105 0
-102 -144 106 0
-102 -145 107 0
-102 -146 108 0
-102 -147 109 0
-102 -148 110 0
-102 -149 111 0
-102 -150 112 0
-102 -151 113 0
-102 -152 114 0
-103 -153 96 0
-103 -154 97 0
-103 -155 98 0
-103 -156 99 0
-103 -157 100 0
-103 -159 101 0
-103 -160 102 0
-103 -161 104 0
-103 -162 105 0
-103 -163 106 0
-103 -164 107 0
-103 -165 108 0
-103 -166 109 0
-103 -167 110 0
-103 -168 111 0
-103 -169 112 0
-103 -170 113 0
-103 -171 114 0
-104 -172 96 0
-104 -173 97 0
-104 -174 98 0
-104 -175 99 0
-104 -176 100 0
-104 -178 101 0
-104 -179 102 0
-104 -180 103 0
-104 -181 105 0
-104 -182 106 0
-104 -183 107 0
-104 -184 108 0
-104 -185 109 0
-104 -186 110 0
-104 -187 111 0
-104 -188 112 0
-104 -189 113 0
-104 -190 114 0
-105 -191 96 0
-105 -192 97 0
-105 -193 98 0
-105 -194 99 0
-105 -195 100 0
-105 -197 101 0
-105 -198 102 0
-105 -199 103 0
-105 -200 104 0
-105 -201 106 0
-105 -202 107 0
-105 -203 108 0
-105 -204 109 0
-105 -205 110 0
-105 -206 111 0
-105 -207 112 0
-105 -208 113 0
-105 -209 114 0
-106 -210 96 0
-106 -211 97 0
-106 -212 98 0
-106 -213 99 0
-106 -214 100 0
-106 -216 101 0
-106 -217 102 0
-106 -218 103 0
-106 -219 104 0
-106 -220 105 0
-106 -221 107 0
-106 -222 108 0
-106 -223 109 0
-106 -224 110 0
-106 -225 111 0
-106 -226 112 0
-106 -227 113 0
-106 -228 114 0
-107 -229 96 0
-107 -230 97 0
-107 -231 98 0
-107 -232 99 0
-107 -233 100 0
-107 -235 101 0
-107 -236 102 0
-107 -237 103 0
-107 -238 104 0
-107 -239 105 0
-107 -240 106 0
-107 -241 108 0
-107 -242 109 0
-107 -243 110 0
-107 -244 111 0
-107 -245 112 0
-107 -246 113 0
-107 -247 114 0
-108 -248 96 0
-108 -249 97 0
-108 -250 98 0
-108 -251 99 0
-108 -252 100 0
-108 -254 101 0
-108 -255 102 0
-108 -256 103 0
-108 -257 104 0
-108 -258 105 0
-108 -259 106 0
-108 -260 107 0
-108 -261 109 0
-108 -262 110 0
-108 -263 111 0
-108 -264 112 0
-108 -265 113 0
-108 -266 114 0
-109 -267 96 0
-109 -268 97 0
-109 -269 98 0
-109 -270 99 0
-109 -271 100 0
-109 -273 101 0
-109 -274 102 0
-109 -275 103 0
-109 -276 104 0
-109 -277 105 0
-109 -278 106 0
-109 -279 107 0
-109 -280 108 0
-109 -281 110 0
-109 -282 111 0
-109 -283 112 0
-109 -284 113 0
-109 -285 114 0
-110 -286 96 0
-110 -287 97 0
-110 -288 98 0
-110 -289 99 0
-110 -290 100 0
-110 -292 101 0
-110 -293 102 0
-110 -294 103 0
-110 -295 104 0
-110 -296 105 0
-110 -297 106 0
-110 -298 107 0
-110 -299 108 0
-110 -300 109 0
-110 -301 111 0
-110 -302 112 0
-110 -303 113 0
-110 -304 114 0
-111 -305 96 0
-111 -306 97 0
-111 -307 98 0
-111 -308 99 0
-111 -309 100 0
-111 -311 101 0
-111 -312 102 0
-111 -313 103 0
-111 -314 104 0
-111 -315 105 0
-111 -316 106 0
-111 -317 107 0
-111 -318 108 0
-111 -319 109 0
-111 -320 110 0
-111 -321 112 0
-111 -322 113 0
-111 -323 114 0
-112 -324 96 0
-112 -325 97 0
-112 -326 98 0
-112 -327 99 0
-112 -328 100 0
-112 -330 101 0
-112 -331 102 0
-112 -332 103 0
-112 -333 104 0
-112 -334 105 0
-112 -335 106 0
-112 -336 107 0
-112 -337 108 0
-112 -338 109 0
-112 -339 110 0
-112 -340 111 0
-112 -341 113 0
-112 -342 114 0
-113 -343 96 0
-113 -344 97 0
-113 -345 98 0
-113 -346 99 0
-113 -347 100 0
-113 -349 101 0
-113 -350 102 0
-113 -351 103 0
-113 -352 104 0
-113 -353 105 0
-113 -354 106 0
-113 -355 107 0
-113 -356 108 0
-113 -357 109 0
-113 -358 110 0
-113 -359 111 0
-113 -360 112 0
-113 -361 114 0
-114 -362 96 0
-114 -363 97 0
-114 -364 98 0
-114 -365 99 0
-114 -366 100 0
-114 -368 101 0
-114 -369 102 0
-114 -370 103 0
-114 -371 104 0
-114 -372 105 0
-114 -373 106 0
-114 -374 107 0
-114 -375 108 0
-114 -376 109 0
-114 -377 110 0
-114 -378 111 0
-114 -379 112 0
-114 -380 113 0
-115 -1 116 0
-115 -2 117 0
-115 -3 118 0
-115 -4 119 0
-115 -5 120 0
-115 -7 121 0
-115 -8 122 0
-115 -9 123 0
-115 -10 124 0
-115 -11 125 0
-115 -12 126 0
-115 -13 127 0
-115 -14 128 0
-115 -15 129 0
-115 -16 130 0
-115 -17 131 0
-115 -18 132 0
-115 -19 133 0
-116 -20 115 0
-116 -21 117 0
-116 -22 118 0
-116 -23 119 0
-116 -24 120 0
-116 -26 121 0
-116 -27 122 0
-116 -28 123 0
-116 -29 124 0
-116 -30 125 0
-116 -31 126 0
-116 -32 127 0
-116 -33 128 0
-116 -34 129 0
-116 -35 130 0
-116 -36 131 0
-116 -37 132 0
-116 -38 133 0
-117 -39 115 0
-117 -40 116 0
-117 -41 118 0
-117 -42 119 0
-117 -43 120 0
-117 -45 121 0
-117 -46 122 0
-117 -47 123 0
-117 -48 124 0
-117 -49 125 0
-117 -50 126 0
-117 -51 127 0
-117 -52 128 0
-117 -53 129 0
-117 -54 130 0
-117 -55 131 0
-117 -56 132 0
-117 -57 133 0
-118 -58 115 0
-118 -59 116 0
-118 -60 117 0
-118 -61 119 0
-118 -62 120 0
-118 -64 121 0
-118 -65 122 0
-118 -66 123 0
-118 -67 124 0
-118 -68 125 0
-118 -69 126 0
-118 -70 127 0
-118 -71 128 0
-118 -72 129 0
-118 -73 130 0
-118 -74 131 0
-118 -75 132 0
-118 -76 133 0
-119 -77 115 0
-119 -78 116 0
-119 -79 117 0
-119 -80 118 0
-119 -81 120 0
-119 -83 121 0
-119 -84 122 0
-119 -85 123 0
-119 -86 124 0
-119 -87 125 0
-119 -88 126 0
-119 -89 127 0
-119 -90 128 0
-119 -91 129 0
-119 -92 130 0
-119 -93 131 0
-119 -94 132 0
-119 -95 133 0
-120 -96 115 0
-120 -97 116 0
-120 -98 117 0
-120 -99 118 0
-120 -100 119 0
-120 -102 121 0
-120 -103 122 0
-120 -104 123 0
-120 -105 124 0
-120 -106 125 0
-120 -107 126 0
-120 -108 127 0
-120 -109 128 0
-120 -110 129 0
-120 -111 130 0
-120 -112 131 0
-120 -113 132 0
-120 -114 133 0
-121 -134 115 0
-121 -135 116 0
-121 -136 117 0
-121 -137 118 0
-121 -138 119 0
-121 -139 120 0
-121 -141 122 0
-121 -142 123 0
-121 -143 124 0
-121 -144 125 0
-121 -145 126 0
-121 -146 127 0
-121 -147 128 0
-121 -148 129 0
-121 -149 130 0
-121 -150 131 0
-121 -151 132 0
-121 -152 133 0
-122 -153 115 0
-122 -154 116 0
-122 -155 117 0
-122 -156 118 0
-122 -157 119 0
-122 -158 120 0
-122 -160 121 0
-122 -161 123 0
-122 -162 124 0
-122 -163 125 0
-122 -164 126 0
-122 -165 127 0
-122 -166 128 0
-122 -167 129 0
-122 -168 130 0
-122 -169 131 0
-122 -170 132 0
-122 -171 133 0
-123 -172 115 0
-123 -173 116 0
-123 -174 117 0
-123 -175 118 0
-123 -176 119 0
-123 -177 120 0
-123 -179 121 0
-123 -180 122 0
-123 -181 124 0
-123 -182 125 0
-123 -183 126 0
-123 -184 127 0
-123 -185 128 0
-123 -186 129 0
-123 -187 130 0
-123 -188 131 0
-123 -189 132 0
-123 -190 133 0
-124 -191 115 0
-124 -192 116 0
-124 -193 117 0
-124 -194 118 0
-124 -195 119 0
-124 -196 120 0
-124 -198 121 0
-124 -199 122 0
-124 -200 123 0
-124 -201 125 0
-124 -202 126 0
-124 -203 127 0
-124 -204 128 0
-124 -205 129 0
-124 -206 130 0
-124 -207 131 0
-124 -208 132 0
-124 -209 133 0
-125 -210 115 0
-125 -211 116 0
-125 -212 117 0
-125 -213 118 0
-125 -214 119 0
-125 -215 120 0
-125 -217 121 0
-125 -218 122 0
-125 -219 123 0
-125 -220 124 0
-125 -221 126 0
-125 -222 127 0
-125 -223 128 0
-125 -224 129 0
-125 -225 130 0
-125 -226 131 0
-125 -227 132 0
-125 -228 133 0
-126 -229 115 0
-126 -230 116 0
-126 -231 117 0
-126 -232 118 0
-126 -233 119 0
-126 -234 120 0
-126 -236 121 0
-126 -237 122 0
-126 -238 123 0
-126 -239 124 0
-126 -240 125 0
-126 -241 127 0
-126 -242 128 0
-126 -243 129 0
-126 -244 130 0
-126 -245 131 0
-126 -246 132 0
-126 -247 133 0
-127 -248 115 0
-127 -249 116 0
-127 -250 117 0
-127 -251 118 0
-127 -252 119 0
-127 -253 120 0
-127 -255 121 0
-127 -256 122 0
-127 -257 123 0
-127 -258 124 0
-127 -259 125 0
-127 -260 126 0
-127 -261 128 0
-127 -262 129 0
-127 -263 130 0
-127 -264 131 0
-127 -265 132 0
-127 -266 133 0
-128 -267 115 0
-128 -268 116 0
-128 -269 117 0
-128 -270 118 0
-128 -271 119 0
-128 -272 120 0
-128 -274 121 0
-128 -275 122 0
-128 -276 123 0
-128 -277 124 0
-128 -278 125 0
-128 -279 126 0
-128 -280 127 0
-128 -281 129 0
-128 -282 130 0
-128 -283 131 0
-128 -284 132 0
-128 -285 133 0
-129 -286 115 0
-129 -287 116 0
-129 -288 117 0
-129 -289 118 0
-129 -290 119 0
-129 -291 120 0
-129 -293 121 0
-129 -294 122 0
-129 -295 123 0
-129 -296 124 0
-129 -297 125 0
-129 -298 126 0
-129 -299 127 0
-129 -300 128 0
-129 -301 130 0
-129 -302 131 0
-129 -303 132 0
-129 -304 133 0
-130 -305 115 0
-130 -306 116 0
-130 -307 117 0
-130 -308 118 0
-130 -309 119 0
-130 -310 120 0
-130 -312 121 0
-130 -313 122 0
-130 -314 123 0
-130 -315 124 0
-130 -316 125 0
-130 -317 126 0
-130 -318 127 0
-130 -319 128 0
-130 -320 129 0
-130 -321 131 0
-130 -322 132 0
-130 -323 133 0
-131 -324 115 0
-131 -325 116 0
-131 -326 117 0
-131 -327 118 0
-131 -328 119 0
-131 -329 120 0
-131 -331 121 0
-131 -332 122 0
-131 -333 123 0
-131 -334 124 0
-131 -335 125 0
-131 -336 126 0
-131 -337 127 0
-131 -338 128 0
-131 -339 129 0
-131 -340 130 0
-131 -341 132 0
-131 -342 133 0
-132 -343 115 0
-132 -344 116 0
-132 -345 117 0
-132 -346 118 0
-132 -347 119 0
-132 -348 120 0
-132 -350 121 0
-132 -351 122 0
-132 -352 123 0
-132 -353 124 0
-132 -354 125 0
-132 -355 126 0
-132 -356 127 0
-132 -357 128 0
-132 -358 129 0
-132 -359 130 0
-132 -360 131 0
-132 -361 133 0
-133 -362 115 0
-133 -363 116 0
-133 -364 117 0
-133 -365 118 0
-133 -366 119 0
-133 -367 120 0
-133 -369 121 0
-133 -370 122 0
-133 -371 123 0
-133 -372 124 0
-133 -373 125 0
-133 -374 126 0
-133 -375 127 0
-133 -376 128 0
-133 -377 129 0
-133 -378 130 0
-133 -379 131 0
-133 -380 132 0
-134 -1 135 0
-134 -2 136 0
-134 -3 137 0
-134 -4 138 0
-134 -5 139 0
-134 -6 140 0
-134 -8 141 0
-134 -9 142 0
-134 -10 143 0
-134 -11 144 0
-134 -12 145 0
-134 -13 146 0
-134 -14 147 0
-134 -15 148 0
-134 -16 149 0
-134 -17 150 0
-134 -18 151 0
-134 -19 152 0
-135 -20 134 0
-135 -21 136 0
-135 -22 137 0
-135 -23 138 0
-135 -24 139 0
-135 -25 140 0
-135 -27 141 0
-135 -28 142 0
-135 -29 143 0
-135 -30 144 0
-135 -31 145 0
-135 -32 146 0
-135 -33 147 0
-135 -34 148 0
-135 -35 149 0
-135 -36 150 0
-135 -37 151 0
-135 -38 152 0
-136 -39 134 0
-136 -40 135 0
-136 -41 137 0
-136 -42 138 0
-136 -43 139 0
-136 -44 140 0
-136 -46 141 0
-136 -47 142 0
-136 -48 143 0
-136 -49 144 0
-136 -50 145 0
-136 -51 146 0
-136 -52 147 0
-136 -53 148 0
-136 -54 149 0
-136 -55 150 0
-136 -56 151 0
-136 -57 152 0
-137 -58 134 0
-137 -59 135 0
-137 -60 136 0
-137 -61 138 0
-137 -62 139 0
-137 -63 140 0
-137 -65 141 0
-137 -66 142 0
-137 -67 143 0
-137 -68 144 0
-137 -69 145 0
-137 -70 146 0
-137 -71 147 0
-137 -72 148 0
-137 -73 149 0
-137 -74 150 0
-137 -75 151 0
-137 -76 152 0
-138 -77 134 0
-138 -78 135 0
-138 -79 136 0
-138 -80 137 0
-138 -81 139 0
-138 -82 140 0
-138 -84 141 0
-138 -85 142 0
-138 -86 143 0
-138 -87 144 0
-138 -88 145 0
-138 -89 146 0
-138 -90 147 0
-138 -91 148 0
-138 -92 149 0
-138 -93 150 0
-138 -94 151 0
-138 -95 152 0
-139 -96 134 0
-139 -97 135 0
-139 -98 136 0
-139 -99 137 0
-139 -100 138 0
-139 -101 140 0
-139 -103 141 0
-139 -104 142 0
-139 -105 143 0
-139 -106 144 0
-139 -107 145 0
-139 -108 146 0
-139 -109 147 0
-139 -110 148 0
-139 -111 149 0
-139 -112 150 0
-139 -113 151 0
-139 -114 152 0
-140 -115 134 0
-140 -116 135 0
-140 -117 136 0
-140 -118 137 0
-140 -119 138 0
-140 -120 139 0
-140 -122 141 0
-140 -123 142 0
-140 -124 143 0
-140 -125 144 0
-140 -126 145 0
-140 -127 146 0
-140 -128 147 0
-140 -129 148 0
-140 -130 149 0
-140 -131 150 0
-140 -132 151 0
-140 -133 152 0
-141 -153 134 0
-141 -154 135 0
-141 -155 136 0
-141 -156 137 0
-141 -157 138 0
-141 -158 139 0
-141 -159 140 0
-141 -161 142 0
-141 -162 143 0
-141 -163 144 0
-141 -164 145 0
-141 -165 146 0
-141 -166 147 0
-141 -167 148 0
-141 -168 149 0
-141 -169 150 0
-141 -170 151 0
-141 -171 152 0
-142 -172 134 0
-142 -173 135 0
-142 -174 136 0
-142 -175 137 0
-142 -176 138 0
-142 -177 139 0
-142 -178 140 0
-142 -180 141 0
-142 -181 143 0
-142 -182 144 0
-142 -183 145 0
-142 -184 146 0
-142 -185 147 0
-142 -186 148 0
-142 -187 149 0
-142 -188 150 0
-142 -189 151 0
-142 -190 152 0
-143 -191 134 0
-143 -192 135 0
-143 -193 136 0
-143 -194 137 0
-143 -195 138 0
-143 -196 139 0
-143 -197 140 0
-143 -199 141 0
-143 -200 142 0
-143 -201 144 0
-143 -202 145 0
-143 -203 146 0
-143 -204 147 0
-143 -205 148 0
-143 -206 149 0
-143 -207 150 0
-143 -208 151 0
-143 -209 152 0
-144 -210 134 0
-144 -211 135 0
-144 -212 136 0
-144 -213 137 0
-144 -214 138 0
-144 -215 139 0
-144 -216 140 0
-144 -218 141 0
-144 -219 142 0
-144 -220 143 0
-144 -221 145 0
-144 -222 146 0
-144 -223 147 0
-144 -224 148 0
-144 -225 149 0
-144 -226 150 0
-144 -227 151 0
-144 -228 152 0
-145 -229 134 0
-145 -230 135 0
-145 -231 136 0
-145 -232 137 0
-145 -233 138 0
-145 -234 139 0
-145 -235 140 0
-145 -237 141 0
-145 -238 142 0
-145 -239 143 0
-145 -240 144 0
-145 -241 146 0
-145 -242 147 0
-145 -243 148 0
-145 -244 149 0
-145 -245 150 0
-145 -246 151 0
-145 -247 152 0
-146 -248 134 0
-146 -249 135 0
-146 -250 136 0
-146 -251 137 0
-146 -252 138 0
-146 -253 139 0
-146 -254 140 0
-146 -256 141 0
-146 -257 142 0
-146 -258 143 0
-146 -259 144 0
-146 -260 145 0
-146 -261 147 0
-146 -262 148 0
-146 -263 149 0
-146 -264 150 0
-146 -265 151 0
-146 -266 152 0
-147 -267 134 0
-147 -268 135 0
-147 -269 136 0
-147 -270 137 0
-147 -271 138 0
-147 -272 139 0
-147 -273 140 0
-147 -275 141 0
-147 -276 142 0
-147 -277 143 0
-147 -278 144 0
-147 -279 145 0
-147 -280 146 0
-147 -281 148 0
-147 -282 149 0
-147 -283 150 0
-147 -284 151 0
-147 -285 152 0
-148 -286 134 0
-148 -287 135 0
-148 -288 136 0
-148 -289 137 0
-148 -290 138 0
-148 -291 139 0
-148 -292 140 0
-148 -294 141 0
-148 -295 142 0
-148 -296 143 0
-148 -297 144 0
-148 -298 145 0
-148 -299 146 0
-148 -300 147 0
-148 -301 149 0
-148 -302 150 0
-148 -303 151 0
-148 -304 152 0
-149 -305 134 0
-149 -306 135 0
-149 -307 136 0
-149 -308 137 0
-149 -309 138 0
-149 -310 139 0
-149 -311 140 0
-149 -313 141 0
-149 -314 142 0
-149 -315 143 0
-149 -316 144 0
-149 -317 145 0
-149 -318 146 0
-149 -319 147 0
-149 -320 148 0
-149 -321 150 0
-149 -322 151 0
-149 -323 152 0
-150 -324 134 0
-150 -325 135 0
-150 -326 136 0
-150 -327 137 0
-150 -328 138 0
-150 -329 139 0
-150 -330 140 0
-150 -332 141 0
-150 -333 142 0
-150 -334 143 0
-150 -335 144 0
-150 -336 145 0
-150 -337 146 0
-150 -338 147 0
-150 -339 148 0
-150 -340 149 0
-150 -341 151 0
-150 -342 152 0
-151 -343 134 0
-151 -344 135 0
-151 -345 136 0
-151 -346 137 0
-151 -347 138 0
-151 -348 139 0
-151 -349 140 0
-151 -351 141 0
-151 -352 142 0
-151 -353 143 0
-151 -354 144 0
-151 -355 145 0
-151 -356 146 0
-151 -357 147 0
-151 -358 148 0
-151 -359 149 0
-151 -360 150 0
-151 -361 152 0
-152 -362 134 0
-152 -363 135 0
-152 -364 136 0
-152 -365 137 0
-152 -366 138 0
-152 -367 139 0
-152 -368 140 0
-152 -370 141 0
-152 -371 142 0
-152 -372 143 0
-152 -373 144 0
-152 -374 145 0
-152 -375 146 0
-152 -376 147 0
-152 -377 148 0
-152 -378 149 0
-152 -379 150 0
-152 -380 151 0
-153 -1 154 0
-153 -2 155 0
-153 -3 156 0
-153 -4 157 0
-153 -5 158 0
-153 -6 159 0
-153 -7 160 0
-153 -9 161 0
-153 -10 162 0
-153 -11 163 0
-153 -12 164 0
-153 -13 165 0
-153 -14 166 0
-153 -15 167 0
-153 -16 168 0
-153 -17 169 0
-153 -18 170 0
-153 -19 171 0
-154 -20 153 0
-154 -21 155 0
-154 -22 156 0
-154 -23 157 0
-154 -24 158 0
-154 -25 159 0
-154 -26 160 0
-154 -28 161 0
-154 -29 162 0
-154 -30 163 0
-154 -31 164 0
-154 -32 165 0
-154 -33 166 0
-154 -34 167 0
-154 -35 168 0
-154 -36 169 0
-154 -37 170 0
-154 -38 171 0
-155 -39 153 0
-155 -40 154 0
-155 -41 156 0
-155 -42 157 0
-155 -43 158 0
-155 -44 159 0
-155 -45 160 0
-155 -47 161 0
-155 -48 162 0
-155 -49 163 0
-155 -50 164 0
-155 -51 165 0
-155 -52 166 0
-155 -53 167 0
-155 -54 168 0
-155 -55 169 0
-155 -56 170 0
-155 -57 171 0
-156 -58 153 0
-156 -59 154 0
-156 -60 155 0
-156 -61 157 0
-156 -62 158 0
-156 -63 159 0
-156 -64 160 0
-156 -66 161 0
-156 -67 162 0
-156 -68 163 0
-156 -69 164 0
-156 -70 165 0
-156 -71 166 0
-156 -72 167 0
-156 -73 168 0
-156 -74 169 0
-156 -75 170 0
-156 -76 171 0
-157 -77 153 0
-157 -78 154 0
-157 -79 155 0
-157 -80 156 0
-157 -81 158 0
-157 -82 159 0
-157 -83 160 0
-157 -85 161 0
-157 -86 162 0
-157 -87 163 0
-157 -88 164 0
-157 -89 165 0
-157 -90 166 0
-157 -91 167 0
-157 -92 168 0
-157 -93 169 0
-157 -94 170 0
-157 -95 171 0
-158 -96 153 0
-158 -97 154 0
-158 -98 155 0
-158 -99 156 0
-158 -100 157 0
-158 -101 159 0
-158 -102 160 0
-158 -104 161 0
-158 -105 162 0
-158 -106 163 0
-158 -107 164 0
-158 -108 165 0
-158 -109 166 0
-158 -110 167 0
-158 -111 168 0
-158 -112 169 0
-158 -113 170 0
-158 -114 171 0
-159 -115 153 0
-159 -116 154 0
-159 -117 155 0
-159 -118 156 0
-159 -119 157 0
-159 -120 158 0
-159 -121 160 0
-159 -123 161 0
-159 -124 162 0
-159 -125 163 0
-159 -126 164 0
-159 -127 165 0
-159 -128 166 0
-159 -129 167 0
-159 -130 168 0
-159 -131 169 0
-159 -132 170 0
-159 -133 171 0
-160 -134 153 0
-160 -135 154 0
-160 -136 155 0
-160 -137 156 0
-160 -138 157 0
-160 -139 158 0
-160 -140 159 0
-160 -142 161 0
-160 -143 162 0
-160 -144 163 0
-160 -145 164 0
-160 -146 165 0
-160 -147 166 0
-160 -148 167 0
-160 -149 168 0
-160 -150 169 0
-160 -151 170 0
-160 -152 171 0
-161 -172 153 0
-161 -173 154 0
-161 -174 155 0
-161 -175 156 0
-161 -176 157 0
-161 -177 158 0
-161 -178 159 0
-161 -179 160 0
-161 -181 162 0
-161 -182 163 0
-161 -183 164 0
-161 -184 165 0
-161 -185 166 0
-161 -186 167 0
-161 -187 168 0
-161 -188 169 0
-161 -189 170 0
-161 -190 171 0
-162 -191 153 0
-162 -192 154 0
-162 -193 155 0
-162 -194 156 0
-162 -195 157 0
-162 -196 158 0
-162 -197 159 0
-162 -198 160 0
-162 -200 161 0
-162 -201 163 0
-162 -202 164 0
-162 -203 165 0
-162 -204 166 0
-162 -205 167 0
-162 -206 168 0
-162 -207 169 0
-162 -208 170 0
-162 -209 171 0
-163 -210 153 0
-163 -211 154 0
-163 -212 155 0
-163 -213 156 0
-163 -214 157 0
-163 -215 158 0
-163 -216 159 0
-163 -217 160 0
-163 -219 161 0
-163 -220 162 0
-163 -221 164 0
-163 -222 165 0
-163 -223 166 0
-163 -224 167 0
-163 -225 168 0
-163 -226 169 0
-163 -227 170 0
-163 -228 171 0
-164 -229 153 0
-164 -230 154 0
-164 -231 155 0
-164 -232 156 0
-164 -233 157 0
-164 -234 158 0
-164 -235 159 0
-164 -236 160 0
-164 -238 161 0
-164 -239 162 0
-164 -240 163 0
-164 -241 165 0
-164 -242 166 0
-164 -243 167 0
-164 -244 168 0
-164 -245 169 0
-164 -246 170 0
-164 -247 171 0
-165 -248 153 0
-165 -249 154 0
-165 -250 155 0
-165 -251 156 0
-165 -252 157 0
-165 -253 158 0
-165 -254 159 0
-165 -255 160 0
-165 -257 161 0
-165 -258 162 0
-165 -259 163 0
-165 -260 164 0
-165 -261 166 0
-165 -262 167 0
-165 -263 168 0
-165 -264 169 0
-165 -265 170 0
-165 -266 171 0
-166 -267 153 0
-166 -268 154 0
-166 -269 155 0
-166 -270 156 0
-166 -271 157 0
-166 -272 158 0
-166 -273 159 0
-166 -274 160 0
-166 -276 161 0
-166 -277 162 0
-166 -278 163 0
-166 -279 164 0
-166 -280 165 0
-166 -281 167 0
-166 -282 168 0
-166 -283 169 0
-166 -284 170 0
-166 -285 171 0
-167 -286 153 0
-167 -287 154 0
-167 -288 155 0
-167 -289 156 0
-167 -290 157 0
-167 -291 158 0
-167 -292 159 0
-167 -293 160 0
-167 -295 161 0
-167 -296 162 0
-167 -297 163 0
-167 -298 164 0
-167 -299 165 0
-167 -300 166 0
-167 -301 168 0
-167 -302 169 0
-167 -303 170 0
-167 -304 171 0
-168 -305 153 0
-168 -306 154 0
-168 -307 155 0
-168 -308 156 0
-168 -309 157 0
-168 -310 158 0
-168 -311 159 0
-168 -312 160 0
-168 -314 161 0
-168 -315 162 0
-168 -316 163 0
-168 -317 164 0
-168 -318 165 0
-168 -319 166 0
-168 -320 167 0
-168 -321 169 0
-168 -322 170 0
-168 -323 171 0
-169 -324 153 0
-169 -325 154 0
-169 -326 155 0
-169 -327 156 0
-169 -328 157 0
-169 -329 158 0
-169 -330 159 0
-169 -331 160 0
-169 -333 161 0
-169 -334 162 0
-169 -335 163 0
-169 -336 164 0
-169 -337 165 0
-169 -338 166 0
-169 -339 167 0
-169 -340 168 0
-169 -341 170 0
-169 -342 171 0
-170 -343 153 0
-170 -344 154 0
-170 -345 155 0
-170 -346 156 0
-170 -347 157 0
-170 -348 158 0
-170 -349 159 0
-170 -350 160 0
-170 -352 161 0
-170 -353 162 0
-170 -354 163 0
-170 -355 164 0
-170 -356 165 0
-170 -357 166 0
-170 -358 167 0
-170 -359 168 0
-170 -360 169 0
-170 -361 171 0
-171 -362 153 0
-171 -363 154 0
-171 -364 155 0
-171 -365 156 0
-171 -366 157 0
-171 -367 158 0
-171 -368 159 0
-171 -369 160 0
-171 -371 161 0
-171 -372 162 0
-171 -373 163 0
-171 -374 164 0
-171 -375 165 0
-171 -376 166 0
-171 -377 167 0
-171 -378 168 0
-171 -379 169 0
-171 -380 170 0
-172 -1 173 0
-172 -2 174 0
-172 -3 175 0
-172 -4 176 0
-172 -5 177 0
-172 -6 178 0
-172 -7 179 0
-172 -8 180 0
-172 -10 181 0
-172 -11 182 0
-172 -12 183 0
-172 -13 184 0
-172 -14 185 0
-172 -15 186 0
-172 -16 187 0
-172 -17 188 0
-172 -18 189 0
-172 -19 190 0
-173 -20 172 0
-173 -21 174 0
-173 -22 175 0
-173 -23 176 0
-173 -24 177 0
-173 -25 178 0
-173 -26 179 0
-173 -27 180 0
-173 -29 181 0
-173 -30 182 0
-173 -31 183 0
-173 -32 184 0
-173 -33 185 0
-173 -34 186 0
-173 -35 187 0
-173 -36 188 0
-173 -37 189 0
-173 -38 190 0
-174 -39 172 0
-174 -40 173 0
-174 -41 175 0
-174 -42 176 0
-174 -43 177 0
-174 -44 178 0
-174 -45 179 0
-174 -46 180 0
-174 -48 181 0
-174 -49 182 0
-174 -50 183 0
-174 -51 184 0
-174 -52 185 0
-174 -53 186 0
-174 -54 187 0
-174 -55 188 0
-174 -56 189 0
-174 -57 190 0
-175 -58 172 0
-175 -59 173 0
-175 -60 174 0
-175 -61 176 0
-175 -62 177 0
-175 -63 178 0
-175 -64 179 0
-175 -65 180 0
-175 -67 181 0
-175 -68 182 0
-175 -69 183 0
-175 -70 184 0
-175 -71 185 0
-175 -72 186 0
-175 -73 187 0
-175 -74 188 0
-175 -75 189 0
-175 -76 190 0
-176 -77 172 0
-176 -78 173 0
-176 -79 174 0
-176 -80 175 0
-176 -81 177 0
-176 -82 178 0
-176 -83 179 0
-176 -84 180 0
-176 -86 181 0
-176 -87 182 0
-176 -88 183 0
-176 -89 184 0
-176 -90 185 0
-176 -91 186 0
-176 -92 187 0
-176 -93 188 0
-176 -94 189 0
-176 -95 190 0
-177 -96 172 0
-177 -97 173 0
-177 -98 174 0
-177 -99 175 0
-177 -100 176 0
-177 -101 178 0
-177 -102 179 0
-177 -103 180 0
-177 -105 181 0
-177 -106 182 0
-177 -107 183 0
-177 -108 184 0
-177 -109 185 0
-177 -110 186 0
-177 -111 187 0
-177 -112 188 0
-177 -113 189 0
-177 -114 190 0
-178 -115 172 0
-178 -116 173 0
-178 -117 174 0
-178 -118 175 0
-178 -119 176 0
-178 -120 177 0
-178 -121 179 0
-178 -122 180 0
-178 -124 181 0
-178 -125 182 0
-178 -126 183 0
-178 -127 184 0
-178 -128 185 0
-178 -129 186 0
-178 -130 187 0
-178 -131 188 0
-178 -132 189 0
-178 -133 190 0
-179 -134 172 0
-179 -135 173 0
-179 -136 174 0
-179 -137 175 0
-179 -138 176 0
-179 -139 177 0
-179 -140 178 0
-179 -141 180 0
-179 -143 181 0
-179 -144 182 0
-179 -145 183 0
-179 -146 184 0
-179 -147 185 0
-179 -148 186 0
-179 -149 187 0
-179 -150 188 0
-179 -151 189 0
-179 -152 190 0
-180 -153 172 0
-180 -154 173 0
-180 -155 174 0
-180 -156 175 0
-180 -157 176 0
-180 -158 177 0
-180 -159 178 0
-180 -160 179 0
-180 -162 181 0
-180 -163 182 0
-180 -164 183 0
-180 -165 184 0
-180 -166 185 0
-180 -167 186 0
-180 -168 187 0
-180 -169 188 0
-180 -170 189 0
-180 -171 190 0
-181 -191 172 0
-181 -192 173 0
-181 -193 174 0
-181 -194 175 0
-181 -195 176 0
-181 -196 177 0
-181 -197 178 0
-181 -198 179 0
-181 -199 180 0
-181 -201 182 0
-181 -202 183 0
-181 -203 184 0
-181 -204 185 0
-181 -205 186 0
-181 -206 187 0
-181 -207 188 0
-181 -208 189 0
-181 -209 190 0
-182 -210 172 0
-182 -211 173 0
-182 -212 174 0
-182 -213 175 0
-182 -214 176 0
-182 -215 177 0
-182 -216 178 0
-182 -217 179 0
-182 -218 180 0
-182 -220 181 0
-182 -221 183 0
-182 -222 184 0
-182 -223 185 0
-182 -224 186 0
-182 -225 187 0
-182 -226 188 0
-182 -227 189 0
-182 -228 190 0
-183 -229 172 0
-183 -230 173 0
-183 -231 174 0
-183 -232 175 0
-183 -233 176 0
-183 -234 177 0
-183 -235 178 0
-183 -236 179 0
-183 -237 180 0
-183 -239 181 0
-183 -240 182 0
-183 -241 184 0
-183 -242 185 0
-183 -243 186 0
-183 -244 187 0
-183 -245 188 0
-183 -246 189 0
-183 -247 190 0
-184 -248 172 0
-184 -249 173 0
-184 -250 174 0
-184 -251 175 0
-184 -252 176 0
-184 -253 177 0
-184 -254 178 0
-184 -255 179 0
-184 -256 180 0
-184 -258 181 0
-184 -259 182 0
-184 -260 183 0
-184 -261 185 0
-184 -262 186 0
-184 -263 187 0
-184 -264 188 0
-184 -265 189 0
-184 -266 190 0
-185 -267 172 0
-185 -268 173 0
-185 -269 174 0
-185 -270 175 0
-185 -271 176 0
-185 -272 177 0
-185 -273 178 0
-185 -274 179 0
-185 -275 180 0
-185 -277 181 0
-185 -278 182 0
-185 -279 183 0
-185 -280 184 0
-185 -281 186 0
-185 -282 187 0
-185 -283 188 0
-185 -284 189 0
-185 -285 190 0
-186 -286 172 0
-186 -287 173 0
-186 -288 174 0
-186 -289 175 0
-186 -290 176 0
-186 -291 177 0
-186 -292 178 0
-186 -293 179 0
-186 -294 180 0
-186 -296 181 0
-186 -297 182 0
-186 -298 183 0
-186 -299 184 0
-186 -300 185 0
-186 -301 187 0
-186 -302 188 0
-186 -303 189 0
-186 -304 190 0
-187 -305 172 0
-187 -306 173 0
-187 -307 174 0
-187 -308 175 0
-187 -309 176 0
-187 -310 177 0
-187 -311 178 0
-187 -312 179 0
-187 -313 180 0
-187 -315 181 0
-187 -316 182 0
-187 -317 183 0
-187 -318 184 0
-187 -319 185 0
-187 -320 186 0
-187 -321 188 0
-187 -322 189 0
-187 -323 190 0
-188 -324 172 0
-188 -325 173 0
-188 -326 174 0
-188 -327 175 0
-188 -328 176 0
-188 -329 177 0
-188 -330 178 0
-188 -331 179 0
-188 -332 180 0
-188 -334 181 0
-188 -335 182 0
-188 -336 183 0
-188 -337 184 0
-188 -338 185 0
-188 -339 186 0
-188 -340 187 0
-188 -341 189 0
-188 -342 190 0
-189 -343 172 0
-189 -344 173 0
-189 -345 174 0
-189 -346 175 0
-189 -347 176 0
-189 -348 177 0
-189 -349 178 0
-189 -350 179 0
-189 -351 180 0
-189 -353 181 0
-189 -354 182 0
-189 -355 183 0
-189 -356 184 0
-189 -357 185 0
-189 -358 186 0
-189 -359 187 0
-189 -360 188 0
-189 -361 190 0
-190 -362 172 0
-190 -363 173 0
-190 -364 174 0
-190 -365 175 0
-190 -366 176 0
-190 -367 177 0
-190 -368 178 0
-190 -369 179 0
-190 -370 180 0
-190 -372 181 0
-190 -373 182 0
-190 -374 183 0
-190 -375 184 0
-190 -376 185 0
-190 -377 186 0
-190 -378 187 0
-190 -379 188 0
-190 -380 189 0
-191 -1 192 0
-191 -2 193 0
-191 -3 194 0
-191 -4 195 0
-191 -5 196 0
-191 -6 197 0
-191 -7 198 0
-191 -8 199 0
-191 -9 200 0
-191 -11 201 0
-191 -12 202 0
-191 -13 203 0
-191 -14 204 0
-191 -15 205 0
-191 -16 206 0
-191 -17 207 0
-191 -18 208 0
-191 -19 209 0
-192 -20 191 0
-192 -21 193 0
-192 -22 194 0
-192 -23 195 0
-192 -24 196 0
-192 -25 197 0
-192 -26 198 0
-192 -27 199 0
-192 -28 200 0
-192 -30 201 0
-192 -31 202 0
-192 -32 203 0
-192 -33 204 0
-192 -34 205 0
-192 -35 206 0
-192 -36 207 0
-192 -37 208 0
-192 -38 209 0
-193 -39 191 0
-193 -40 192 0
-193 -41 194 0
-193 -42 195 0
-193 -43 196 0
-193 -44 197 0
-193 -45 198 0
-193 -46 199 0
-193 -47 200 0
-193 -49 201 0
-193 -50 202 0
-193 -51 203 0
-193 -52 204 0
-193 -53 205 0
-193 -54 206 0
-193 -55 207 0
-193 -56 208 0
-193 -57 209 0
-194 -58 191 0
-194 -59 192 0
-194 -60 193 0
-194 -61 195 0
-194 -62 196 0
-194 -63 197 0
-194 -64 198 0
-194 -65 199 0
-194 -66 200 0
-194 -68 201 0
-194 -69 202 0
-194 -70 203 0
-194 -71 204 0
-194 -72 205 0
-194 -73 206 0
-194 -74 207 0
-194 -75 208 0
-194 -76 209 0
-195 -77 191 0
-195 -78 192 0
-195 -79 193 0
-195 -80 194 0
-195 -81 196 0
-195 -82 197 0
-195 -83 198 0
-195 -84 199 0
-195 -85 200 0
-195 -87 201 0
-195 -88 202 0
-195 -89 203 0
-195 -90 204 0
-195 -91 205 0
-195 -92 206 0
-195 -93 207 0
-195 -94 208 0
-195 -95 209 0
-196 -96 191 0
-196 -97 192 0
-196 -98 193 0
-196 -99 194 0
-196 -100 195 0
-196 -101 197 0
-196 -102 198 0
-196 -103 199 0
-196 -104 200 0
-196 -106 201 0
-196 -107 202 0
-196 -108 203 0
-196 -109 204 0
-196 -110 205 0
-196 -111 206 0
-196 -112 207 0
-196 -113 208 0
-196 -114 209 0
-197 -115 191 0
-197 -116 192 0
-197 -117 193 0
-197 -118 194 0
-197 -119 195 0
-197 -120 196 0
-197 -121 198 0
-197 -122 199 0
-197 -123 200 0
-197 -125 201 0
-197 -126 202 0
-197 -127 203 0
-197 -128 204 0
-197 -129 205 0
-197 -130 206 0
-197 -131 207 0
-197 -132 208 0
-197 -133 209 0
-198 -134 191 0
-198 -135 192 0
-198 -136 193 0
-198 -137 194 0
-198 -138 195 0
-198 -139 196 0
-198 -140 197 0
-198 -141 199 0
-198 -142 200 0
-198 -144 201 0
-198 -145 202 0
-198 -146 203 0
-198 -147 204 0
-198 -148 205 0
-198 -149 206 0
-198 -150 207 0
-198 -151 208 0
-198 -152 209 0
-199 -153 191 0
-199 -154 192 0
-199 -155 193 0
-199 -156 194 0
-199 -157 195 0
-199 -158 196 0
-199 -159 197 0
-199 -160 198 0
-199 -161 200 0
-199 -163 201 0
-199 -164 202 0
-199 -165 203 0
-199 -166 204 0
-199 -167 205 0
-199 -168 206 0
-199 -169 207 0
-199 -170 208 0
-199 -171 209 0
-200 -172 191 0
-200 -173 192 0
-200 -174 193 0
-200 -175 194 0
-200 -176 195 0
-200 -177 196 0
-200 -178 197 0
-200 -179 198 0
-200 -180 199 0
-200 -182 201 0
-200 -183 202 0
-200 -184 203 0
-200 -185 204 0
-200 -186 205 0
-200 -187 206 0
-200 -188 207 0
-200 -189 208 0
-200 -190 209 0
-201 -210 191 0
-201 -211 192 0
-201 -212 193 0
-201 -213 194 0
-201 -214 195 0
-201 -215 196 0
-201 -216 197 0
-201 -217 198 0
-201 -218 199 0
-201 -219 200 0
-201 -221 202 0
-201 -222 203 0
-201 -223 204 0
-201 -224 205 0
-201 -225 206 0
-201 -226 207 0
-201 -227 208 0
-201 -228 209 0
-202 -229 191 0
-202 -230 192 0
-202 -231 193 0
-202 -232 194 0
-202 -233 195 0
-202 -234 196 0
-202 -235 197 0
-202 -236 198 0
-202 -237 199 0
-202 -238 200 0
-202 -240 201 0
-202 -241 203 0
-202 -242 204 0
-202 -243 205 0
-202 -244 206 0
-202 -245 207 0
-202 -246 208 0
-202 -247 209 0
-203 -248 191 0
-203 -249 192 0
-203 -250 193 0
-203 -251 194 0
-203 -252 195 0
-203 -253 196 0
-203 -254 197 0
-203 -255 198 0
-203 -256 199 0
-203 -257 200 0
-203 -259 201 0
-203 -260 202 0
-203 -261 204 0
-203 -262 205 0
-203 -263 206 0
-203 -264 207 0
-203 -265 208 0
-203 -266 209 0
-204 -267 191 0
-204 -268 192 0
-204 -269 193 0
-204 -270 194 0
-204 -271 195 0
-204 -272 196 0
-204 -273 197 0
-204 -274 198 0
-204 -275 199 0
-204 -276 200 0
-204 -278 201 0
-204 -279 202 0
-204 -280 203 0
-204 -281 205 0
-204 -282 206 0
-204 -283 207 0
-204 -284 208 0
-204 -285 209 0
-205 -286 191 0
-205 -287 192 0
-205 -288 193 0
-205 -289 194 0
-205 -290 195 0
-205 -291 196 0
-205 -292 197 0
-205 -293 198 0
-205 -294 199 0
-205 -295 200 0
-205 -297 201 0
-205 -298 202 0
-205 -299 203 0
-205 -300 204 0
-205 -301 206 0
-205 -302 207 0
-205 -303 208 0
-205 -304 209 0
-206 -305 191 0
-206 -306 192 0
-206 -307 193 0
-206 -308 194 0
-206 -309 195 0
-206 -310 196 0
-206 -311 197 0
-206 -312 198 0
-206 -313 199 0
-206 -314 200 0
-206 -316 201 0
-206 -317 202 0
-206 -318 203 0
-206 -319 204 0
-206 -320 205 0
-206 -321 207 0
-206 -322 208 0
-206 -323 209 0
-207 -324 191 0
-207 -325 192 0
-207 -326 193 0
-207 -327 194 0
-207 -328 195 0
-207 -329 196 0
-207 -330 197 0
-207 -331 198 0
-207 -332 199 0
-207 -333 200 0
-207 -335 201 0
-207 -336 202 0
-207 -337 203 0
-207 -338 204 0
-207 -339 205 0
-207 -340 206 0
-207 -341 208 0
-207 -342 209 0
-208 -343 191 0
-208 -344 192 0
-208 -345 193 0
-208 -346 194 0
-208 -347 195 0
-208 -348 196 0
-208 -349 197 0
-208 -350 198 0
-208 -351 199 0
-208 -352 200 0
-208 -354 201 0
-208 -355 202 0
-208 -356 203 0
-208 -357 204 0
-208 -358 205 0
-208 -359 206 0
-208 -360 207 0
-208 -361 209 0
-209 -362 191 0
-209 -363 192 0
-209 -364 193 0
-209 -365 194 0
-209 -366 195 0
-209 -367 196 0
-209 -368 197 0
-209 -369 198 0
-209 -370 199 0
-209 -371 200 0
-209 -373 201 0
-209 -374 202 0
-209 -375 203 0
-209 -376 204 0
-209 -377 205 0
-209 -378 206 0
-209 -379 207 0
-209 -380 208 0
-210 -1 211 0
-210 -2 212 0
-210 -3 213 0
-210 -4 214 0
-210 -5 215 0
-210 -6 216 0
-210 -7 217 0
-210 -8 218 0
-210 -9 219 0
-210 -10 220 0
-210 -12 221 0
-210 -13 222 0
-210 -14 223 0
-210 -15 224 0
-210 -16 225 0
-210 -17 226 0
-210 -18 227 0
-210 -19 228 0
-211 -20 210 0
-211 -21 212 0
-211 -22 213 0
-211 -23 214 0
-211 -24 215 0
-211 -25 216 0
-211 -26 217 0
-211 -27 218 0
-211 -28 219 0
-211 -29 220 0
-211 -31 221 0
-211 -32 222 0
-211 -33 223 0
-211 -34 224 0
-211 -35 225 0
-211 -36 226 0
-211 -37 227 0
-211 -38 228 0
-212 -39 210 0
-212 -40 211 0
-212 -41 213 0
-212 -42 214 0
-212 -43 215 0
-212 -44 216 0
-212 -45 217 0
-212 -46 218 0
-212 -47 219 0
-212 -48 220 0
-212 -50 221 0
-212 -51 222 0
-212 -52 223 0
-212 -53 224 0
-212 -54 225 0
-212 -55 226 0
-212 -56 227 0
-212 -57 228 0
-213 -58 210 0
-213 -59 211 0
-213 -60 212 0
-213 -61 214 0
-213 -62 215 0
-213 -63 216 0
-213 -64 217 0
-213 -65 218 0
-213 -66 219 0
-213 -67 220 0
-213 -69 221 0
-213 -70 222 0
-213 -71 223 0
-213 -72 224 0
-213 -73 225 0
-213 -74 226 0
-213 -75 227 0
-213 -76 228 0
-214 -77 210 0
-214 -78 211 0
-214 -79 212 0
-214 -80 213 0
-214 -81 215 0
-214 -82 216 0
-214 -83 217 0
-214 -84 218 0
-214 -85 219 0
-214 -86 220 0
-214 -88 221 0
-214 -89 222 0
-214 -90 223 0
-214 -91 224 0
-214 -92 225 0
-214 -93 226 0
-214 -94 227 0
-214 -95 228 0
-215 -96 210 0
-215 -97 211 0
-215 -98 212 0
-215 -99 213 0
-215 -100 214 0
-215 -101 216 0
-215 -102 217 0
-215 -103 218 0
-215 -104 219 0
-215 -105 220 0
-215 -107 221 0
-215 -108 222 0
-215 -109 223 0
-215 -110 224 0
-215 -111 225 0
-215 -112 226 0
-215 -113 227 0
-215 -114 228 0
-216 -115 210 0
-216 -116 211 0
-216 -117 212 0
-216 -118 213 0
-216 -119 214 0
-216 -120 215 0
-216 -121 217 0
-216 -122 218 0
-216 -123 219 0
-216 -124 220 0
-216 -126 221 0
-216 -127 222 0
-216 -128 223 0
-216 -129 224 0
-216 -130 225 0
-216 -131 226 0
-216 -132 227 0
-216 -133 228 0
-217 -134 210 0
-217 -135 211 0
-217 -136 212 0
-217 -137 213 0
-217 -138 214 0
-217 -139 215 0
-217 -140 216 0
-217 -141 218 0
-217 -142 219 0
-217 -143 220 0
-217 -145 221 0
-217 -146 222 0
-217 -147 223 0
-217 -148 224 0
-217 -149 225 0
-217 -150 226 0
-217 -151 227 0
-217 -152 228 0
-218 -153 210 0
-218 -154 211 0
-218 -155 212 0
-218 -156 213 0
-218 -157 214 0
-218 -158 215 0
-218 -159 216 0
-218 -160 217 0
-218 -161 219 0
-218 -162 220 0
-218 -164 221 0
-218 -165 222 0
-218 -166 223 0
-218 -167 224 0
-218 -168 225 0
-218 -169 226 0
-218 -170 227 0
-218 -171 228 0
-219 -172 210 0
-219 -173 211 0
-219 -174 212 0
-219 -175 213 0
-219 -176 214 0
-219 -177 215 0
-219 -178 216 0
-219 -179 217 0
-219 -180 218 0
-219 -181 220 0
-219 -183 221 0
-219 -184 222 0
-219 -185 223 0
-219 -186 224 0
-219 -187 225 0
-219 -188 226 0
-219 -189 227 0
-219 -190 228 0
-220 -191 210 0
-220 -192 211 0
-220 -193 212 0
-220 -194 213 0
-220 -195 214 0
-220 -196 215 0
-220 -197 216 0
-220 -198 217 0
-220 -199 218 0
-220 -200 219 0
-220 -202 221 0
-220 -203 222 0
-220 -204 223 0
-220 -205 224 0
-220 -206 225 0
-220 -207 226 0
-220 -208 227 0
-220 -209 228 0
-221 -229 210 0
-221 -230 211 0
-221 -231 212 0
-221 -232 213 0
-221 -233 214 0
-221 -234 215 0
-221 -235 216 0
-221 -236 217 0
-221 -237 218 0
-221 -238 219 0
-221 -239 220 0
-221 -241 222 0
-221 -242 223 0
-221 -243 224 0
-221 -244 225 0
-221 -245 226 0
-221 -246 227 0
-221 -247 228 0
-222 -248 210 0
-222 -249 211 0
-222 -250 212 0
-222 -251 213 0
-222 -252 214 0
-222 -253 215 0
-222 -254 216 0
-222 -255 217 0
-222 -256 218 0
-222 -257 219 0
-222 -258 220 0
-222 -260 221 0
-222 -261 223 0
-222 -262 224 0
-222 -263 225 0
-222 -264 226 0
-222 -265 227 0
-222 -266 228 0
-223 -267 210 0
-223 -268 211 0
-223 -269 212 0
-223 -270 213 0
-223 -271 214 0
-223 -272 215 0
-223 -273 216 0
-223 -274 217 0
-223 -275 218 0
-223 -276 219 0
-223 -277 220 0
-223 -279 221 0
-223 -280 222 0
-223 -281 224 0
-223 -282 225 0
-223 -283 226 0
-223 -284 227 0
-223 -285 228 0
-224 -286 210 0
-224 -287 211 0
-224 -288 212 0
-224 -289 213 0
-224 -290 214 0
-224 -291 215 0
-224 -292 216 0
-224 -293 217 0
-224 -294 218 0
-224 -295 219 0
-224 -296 220 0
-224 -298 221 0
-224 -299 222 0
-224 -300 223 0
-224 -301 225 0
-224 -302 226 0
-224 -303 227 0
-224 -304 228 0
-225 -305 210 0
-225 -306 211 0
-225 -307 212 0
-225 -308 213 0
-225 -309 214 0
-225 -310 215 0
-225 -311 216 0
-225 -312 217 0
-225 -313 218 0
-225 -314 219 0
-225 -315 220 0
-225 -317 221 0
-225 -318 222 0
-225 -319 223 0
-225 -320 224 0
-225 -321 226 0
-225 -322 227 0
-225 -323 228 0
-226 -324 210 0
-226 -325 211 0
-226 -326 212 0
-226 -327 213 0
-226 -328 214 0
-226 -329 215 0
-226 -330 216 0
-226 -331 217 0
-226 -332 218 0
-226 -333 219 0
-226 -334 220 0
-226 -336 221 0
-226 -337 222 0
-226 -338 223 0
-226 -339 224 0
-226 -340 225 0
-226 -341 227 0
-226 -342 228 0
-227 -343 210 0
-227 -344 211 0
-227 -345 212 0
-227 -346 213 0
-227 -347 214 0
-227 -348 215 0
-227 -349 216 0
-227 -350 217 0
-227 -351 218 0
-227 -352 219 0
-227 -353 220 0
-227 -355 221 0
-227 -356 222 0
-227 -357 223 0
-227 -358 224 0
-227 -359 225 0
-227 -360 226 0
-227 -361 228 0
-228 -362 210 0
-228 -363 211 0
-228 -364 212 0
-228 -365 213 0
-228 -366 214 0
-228 -367 215 0
-228 -368 216 0
-228 -369 217 0
-228 -370 218 0
-228 -371 219 0
-228 -372 220 0
-228 -374 221 0
-228 -375 222 0
-228 -376 223 0
-228 -377 224 0
-228 -378 225 0
-228 -379 226 0
-228 -380 227 0
-229 -1 230 0
-229 -2 231 0
-229 -3 232 0
-229 -4 233 0
-229 -5 234 0
-229 -6 235 0
-229 -7 236 0
-229 -8 237 0
-229 -9 238 0
-229 -10 239 0
-229 -11 240 0
-229 -13 241 0
-229 -14 242 0
-229 -15 243 0
-229 -16 244 0
-229 -17 245 0
-229 -18 246 0
-229 -19 247 0
-230 -20 229 0
-230 -21 231 0
-230 -22 232 0
-230 -23 233 0
-230 -24 234 0
-230 -25 235 0
-230 -26 236 0
-230 -27 237 0
-230 -28 238 0
-230 -29 239 0
-230 -30 240 0
-230 -32 241 0
-230 -33 242 0
-230 -34 243 0
-230 -35 244 0
-230 -36 245 0
-230 -37 246 0
-230 -38 247 0
-231 -39 229 0
-231 -40 230 0
-231 -41 232 0
-231 -42 233 0
-231 -43 234 0
-231 -44 235 0
-231 -45 236 0
-231 -46 237 0
-231 -47 238 0
-231 -48 239 0
-231 -49 240 0
-231 -51 241 0
-231 -52 242 0
-231 -53 243 0
-231 -54 244 0
-231 -55 245 0
-231 -56 246 0
-231 -57 247 0
-232 -58 229 0
-232 -59 230 0
-232 -60 231 0
-232 -61 233 0
-232 -62 234 0
-232 -63 235 0
-232 -64 236 0
-232 -65 237 0
-232 -66 238 0
-232 -67 239 0
-232 -68 240 0
-232 -70 241 0
-232 -71 242 0
-232 -72 243 0
-232 -73 244 0
-232 -74 245 0
-232 -75 246 0
-232 -76 247 0
-233 -77 229 0
-233 -78 230 0
-233 -79 231 0
-233 -80 232 0
-233 -81 234 0
-233 -82 235 0
-233 -83 236 0
-233 -84 237 0
-233 -85 238 0
-233 -86 239 0
-233 -87 240 0
-233 -89 241 0
-233 -90 242 0
-233 -91 243 0
-233 -92 244 0
-233 -93 245 0
-233 -94 246 0
-233 -95 247 0
-234 -96 229 0
-234 -97 230 0
-234 -98 231 0
-234 -99 232 0
-234 -100 233 0
-234 -101 235 0
-234 -102 236 0
-234 -103 237 0
-234 -104 238 0
-234 -105 239 0
-234 -106 240 0
-234 -108 241 0
-234 -109 242 0
-234 -110 243 0
-234 -111 244 0
-234 -112 245 0
-234 -113 246 0
-234 -114 247 0
-235 -115 229 0
-235 -116 230 0
-235 -117 231 0
-235 -118 232 0
-235 -119 233 0
-235 -120 234 0
-235 -121 236 0
-235 -122 237 0
-235 -123 238 0
-235 -124 239 0
-235 -125 240 0
-235 -127 241 0
-235 -128 242 0
-235 -129 243 0
-235 -130 244 0
-235 -131 245 0
-235 -132 246 0
-235 -133 247 0
-236 -134 229 0
-236 -135 230 0
-236 -136 231 0
-236 -137 232 0
-236 -138 233 0
-236 -139 234 0
-236 -140 235 0
-236 -141 237 0
-236 -142 238 0
-236 -143 239 0
-236 -144 240 0
-236 -146 241 0
-236 -147 242 0
-236 -148 243 0
-236 -149 244 0
-236 -150 245 0
-236 -151 246 0
-236 -152 247 0
-237 -153 229 0
-237 -154 230 0
-237 -155 231 0
-237 -156 232 0
-237 -157 233 0
-237 -158 234 0
-237 -159 235 0
-237 -160 236 0
-237 -161 238 0
-237 -162 239 0
-237 -163 240 0
-237 -165 241 0
-237 -166 242 0
-237 -167 243 0
-237 -168 244 0
-237 -169 245 0
-237 -170 246 0
-237 -171 247 0
-238 -172 229 0
-238 -173 230 0
-238 -174 231 0
-238 -175 232 0
-238 -176 233 0
-238 -177 234 0
-238 -178 235 0
-238 -179 236 0
-238 -180 237 0
-238 -181 239 0
-238 -182 240 0
-238 -184 241 0
-238 -185 242 0
-238 -186 243 0
-238 -187 244 0
-238 -188 245 0
-238 -189 246 0
-238 -190 247 0
-239 -191 229 0
-239 -192 230 0
-239 -193 231 0
-239 -194 232 0
-239 -195 233 0
-239 -196 234 0
-239 -197 235 0
-239 -198 236 0
-239 -199 237 0
-239 -200 238 0
-239 -201 240 0
-239 -203 241 0
-239 -204 242 0
-239 -205 243 0
-239 -206 244 0
-239 -207 245 0
-239 -208 246 0
-239 -209 247 0
-240 -210 229 0
-240 -211 230 0
-240 -212 231 0
-240 -213 232 0
-240 -214 233 0
-240 -215 234 0
-240 -216 235 0
-240 -217 236 0
-240 -218 237 0
-240 -219 238 0
-240 -220 239 0
-240 -222 241 0
-240 -223 242 0
-240 -224 243 0
-240 -225 244 0
-240 -226 245 0
-240 -227 246 0
-240 -228 247 0
-241 -248 229 0
-241 -249 230 0
-241 -250 231 0
-241 -251 232 0
-241 -252 233 0
-241 -253 234 0
-241 -254 235 0
-241 -255 236 0
-241 -256 237 0
-241 -257 238 0
-241 -258 239 0
-241 -259 240 0
-241 -261 242 0
-241 -262 243 0
-241 -263 244 0
-241 -264 245 0
-241 -265 246 0
-241 -266 247 0
-242 -267 229 0
-242 -268 230 0
-242 -269 231 0
-242 -270 232 0
-242 -271 233 0
-242 -272 234 0
-242 -273 235 0
-242 -274 236 0
-242 -275 237 0
-242 -276 238 0
-242 -277 239 0
-242 -278 240 0
-242 -280 241 0
-242 -281 243 0
-242 -282 244 0
-242 -283 245 0
-242 -284 246 0
-242 -285 247 0
-243 -286 229 0
-243 -287 230 0
-243 -288 231 0
-243 -289 232 0
-243 -290 233 0
-243 -291 234 0
-243 -292 235 0
-243 -293 236 0
-243 -294 237 0
-243 -295 238 0
-243 -296 239 0
-243 -297 240 0
-243 -299 241 0
-243 -300 242 0
-243 -301 244 0
-243 -302 245 0
-243 -303 246 0
-243 -304 247 0
-244 -305 229 0
-244 -306 230 0
-244 -307 231 0
-244 -308 232 0
-244 -309 233 0
-244 -310 234 0
-244 -311 235 0
-244 -312 236 0
-244 -313 237 0
-244 -314 238 0
-244 -315 239 0
-244 -316 240 0
-244 -318 241 0
-244 -319 242 0
-244 -320 243 0
-244 -321 245 0
-244 -322 246 0
-244 -323 247 0
-245 -324 229 0
-245 -325 230 0
-245 -326 231 0
-245 -327 232 0
-245 -328 233 0
-245 -329 234 0
-245 -330 235 0
-245 -331 236 0
-245 -332 237 0
-245 -333 238 0
-245 -334 239 0
-245 -335 240 0
-245 -337 241 0
-245 -338 242 0
-245 -339 243 0
-245 -340 244 0
-245 -341 246 0
-245 -342 247 0
-246 -343 229 0
-246 -344 230 0
-246 -345 231 0
-246 -346 232 0
-246 -347 233 0
-246 -348 234 0
-246 -349 235 0
-246 -350 236 0
-246 -351 237 0
-246 -352 238 0
-246 -353 239 0
-246 -354 240 0
-246 -356 241 0
-246 -357 242 0
-246 -358 243 0
-246 -359 244 0
-246 -360 245 0
-246 -361 247 0
-247 -362 229 0
-247 -363 230 0
-247 -364 231 0
-247 -365 232 0
-247 -366 233 0
-247 -367 234 0
-247 -368 235 0
-247 -369 236 0
-247 -370 237 0
-247 -371 238 0
-247 -372 239 0
-247 -373 240 0
-247 -375 241 0
-247 -376 242 0
-247 -377 243 0
-247 -378 244 0
-247 -379 245 0
-247 -380 246 0
-248 -1 249 0
-248 -2 250 0
-248 -3 251 0
-248 -4 252 0
-248 -5 253 0
-248 -6 254 0
-248 -7 255 0
-248 -8 256 0
-248 -9 257 0
-248 -10 258 0
-248 -11 259 0
-248 -12 260 0
-248 -14 261 0
-248 -15 262 0
-248 -16 263 0
-248 -17 264 0
-248 -18 265 0
-248 -19 266 0
-249 -20 248 0
-249 -21 250 0
-249 -22 251 0
-249 -23 252 0
-249 -24 253 0
-249 -25 254 0
-249 -26 255 0
-249 -27 256 0
-249 -28 257 0
-249 -29 258 0
-249 -30 259 0
-249 -31 260 0
-249 -33 261 0
-249 -34 262 0
-249 -35 263 0
-249 -36 264 0
-249 -37 265 0
-249 -38 266 0
-250 -39 248 0
-250 -40 249 0
-250 -41 251 0
-250 -42 252 0
-250 -43 253 0
-250 -44 254 0
-250 -45 255 0
-250 -46 256 0
-250 -47 257 0
-250 -48 258 0
-250 -49 259 0
-250 -50 260 0
-250 -52 261 0
-250 -53 262 0
-250 -54 263 0
-250 -55 264 0
-250 -56 265 0
-250 -57 266 0
-251 -58 248 0
-251 -59 249 0
-251 -60 250 0
-251 -61 252 0
-251 -62 253 0
-251 -63 254 0
-251 -64 255 0
-251 -65 256 0
-251 -66 257 0
-251 -67 258 0
-251 -68 259 0
-251 -69 260 0
-251 -71 261 0
-251 -72 262 0
-251 -73 263 0
-251 -74 264 0
-251 -75 265 0
-251 -76 266 0
-252 -77 248 0
-252 -78 249 0
-252 -79 250 0
-252 -80 251 0
-252 -81 253 0
-252 -82 254 0
-252 -83 255 0
-252 -84 256 0
-252 -85 257 0
-252 -86 258 0
-252 -87 259 0
-252 -88 260 0
-252 -90 261 0
-252 -91 262 0
-252 -92 263 0
-252 -93 264 0
-252 -94 265 0
-252 -95 266 0
-253 -96 248 0
-253 -97 249 0
-253 -98 250 0
-253 -99 251 0
-253 -100 252 0
-253 -101 254 0
-253 -102 255 0
-253 -103 256 0
-253 -104 257 0
-253 -105 258 0
-253 -106 259 0
-253 -107 260 0
-253 -109 261 0
-253 -110 262 0
-253 -111 263 0
-253 -112 264 0
-253 -113 265 0
-253 -114 266 0
-254 -115 248 0
-254 -116 249 0
-254 -117 250 0
-254 -118 251 0
-254 -119 252 0
-254 -120 253 0
-254 -121 255 0
-254 -122 256 0
-254 -123 257 0
-254 -124 258 0
-254 -125 259 0
-254 -126 260 0
-254 -128 261 0
-254 -129 262 0
-254 -130 263 0
-254 -131 264 0
-254 -132 265 0
-254 -133 266 0
-255 -134 248 0
-255 -135 249 0
-255 -136 250 0
-255 -137 251 0
-255 -138 252 0
-255 -139 253 0
-255 -140 254 0
-255 -141 256 0
-255 -142 257 0
-255 -143 258 0
-255 -144 259 0
-255 -145 260 0
-255 -147 261 0
-255 -148 262 0
-255 -149 263 0
-255 -150 264 0
-255 -151 265 0
-255 -152 266 0
-256 -153 248 0
-256 -154 249 0
-256 -155 250 0
-256 -156 251 0
-256 -157 252 0
-256 -158 253 0
-256 -159 254 0
-256 -160 255 0
-256 -161 257 0
-256 -162 258 0
-256 -163 259 0
-256 -164 260 0
-256 -166 261 0
-256 -167 262 0
-256 -168 263 0
-256 -169 264 0
-256 -170 265 0
-256 -171 266 0
-257 -172 248 0
-257 -173 249 0
-257 -174 250 0
-257 -175 251 0
-257 -176 252 0
-257 -177 253 0
-257 -178 254 0
-257 -179 255 0
-257 -180 256 0
-257 -181 258 0
-257 -182 259 0
-257 -183 260 0
-257 -185 261 0
-257 -186 262 0
-257 -187 263 0
-257 -188 264 0
-257 -189 265 0
-257 -190 266 0
-258 -191 248 0
-258 -192 249 0
-258 -193 250 0
-258 -194 251 0
-258 -195 252 0
-258 -196 253 0
-258 -197 254 0
-258 -198 255 0
-258 -199 256 0
-258 -200 257 0
-258 -201 259 0
-258 -202 260 0
-258 -204 261 0
-258 -205 262 0
-258 -206 263 0
-258 -207 264 0
-258 -208 265 0
-258 -209 266 0
-259 -210 248 0
-259 -211 249 0
-259 -212 250 0
-259 -213 251 0
-259 -214 252 0
-259 -215 253 0
-259 -216 254 0
-259 -217 255 0
-259 -218 256 0
-259 -219 257 0
-259 -220 258 0
-259 -221 260 0
-259 -223 261 0
-259 -224 262 0
-259 -225 263 0
-259 -226 264 0
-259 -227 265 0
-259 -228 266 0
-260 -229 248 0
-260 -230 249 0
-260 -231 250 0
-260 -232 251 0
-260 -233 252 0
-260 -234 253 0
-260 -235 254 0
-260 -236 255 0
-260 -237 256 0
-260 -238 257 0
-260 -239 258 0
-260 -240 259 0
-260 -242 261 0
-260 -243 262 0
-260 -244 263 0
-260 -245 264 0
-260 -246 265 0
-260 -247 266 0
-261 -267 248 0
-261 -268 249 0
-261 -269 250 0
-261 -270 251 0
-261 -271 252 0
-261 -272 253 0
-261 -273 254 0
-261 -274 255 0
-261 -275 256 0
-261 -276 257 0
-261 -277 258 0
-261 -278 259 0
-261 -279 260 0
-261 -281 262 0
-261 -282 263 0
-261 -283 264 0
-261 -284 265 0
-261 -285 266 0
-262 -286 248 0
-262 -287 249 0
-262 -288 250 0
-262 -289 251 0
-262 -290 252 0
-262 -291 253 0
-262 -292 254 0
-262 -293 255 0
-262 -294 256 0
-262 -295 257 0
-262 -296 258 0
-262 -297 259 0
-262 -298 260 0
-262 -300 261 0
-262 -301 263 0
-262 -302 264 0
-262 -303 265 0
-262 -304 266 0
-263 -305 248 0
-263 -306 249 0
-263 -307 250 0
-263 -308 251 0
-263 -309 252 0
-263 -310 253 0
-263 -311 254 0
-263 -312 255 0
-263 -313 256 0
-263 -314 257 0
-263 -315 258 0
-263 -316 259 0
-263 -317 260 0
-263 -319 261 0
-263 -320 262 0
-263 -321 264 0
-263 -322 265 0
-263 -323 266 0
-264 -324 248 0
-264 -325 249 0
-264 -326 250 0
-264 -327 251 0
-264 -328 252 0
-264 -329 253 0
-264 -330 254 0
-264 -331 255 0
-264 -332 256 0
-264 -333 257 0
-264 -334 258 0
-264 -335 259 0
-264 -336 260 0
-264 -338 261 0
-264 -339 262 0
-264 -340 263 0
-264 -341 265 0
-264 -342 266 0
-265 -343 248 0
-265 -344 249 0
-265 -345 250 0
-265 -346 251 0
-265 -347 252 0
-265 -348 253 0
-265 -349 254 0
-265 -350 255 0
-265 -351 256 0
-265 -352 257 0
-265 -353 258 0
-265 -354 259 0
-265 -355 260 0
-265 -357 261 0
-265 -358 262 0
-265 -359 263 0
-265 -360 264 0
-265 -361 266 0
-266 -362 248 0
-266 -363 249 0
-266 -364 250 0
-266 -365 251 0
-266 -366 252 0
-266 -367 253 0
-266 -368 254 0
-266 -369 255 0
-266 -370 256 0
-266 -371 257 0
-266 -372 258 0
-266 -373 259 0
-266 -374 260 0
-266 -376 261 0
-266 -377 262 0
-266 -378 263 0
-266 -379 264 0
-266 -380 265 0
-267 -1 268 0
-267 -2 269 0
-267 -3 270 0
-267 -4 271 0
-267 -5 272 0
-267 -6 273 0
-267 -7 274 0
-267 -8 275 0
-267 -9 276 0
-267 -10 277 0
-267 -11 278 0
-267 -12 279 0
-267 -13 280 0
-267 -15 281 0
-267 -16 282 0
-267 -17 283 0
-267 -18 284 0
-267 -19 285 0
-268 -20 267 0
-268 -21 269 0
-268 -22 270 0
-268 -23 271 0
-268 -24 272 0
-268 -25 273 0
-268 -26 274 0
-268 -27 275 0
-268 -28 276 0
-268 -29 277 0
-268 -30 278 0
-268 -31 279 0
-268 -32 280 0
-268 -34 281 0
-268 -35 282 0
-268 -36 283 0
-268 -37 284 0
-268 -38 285 0
-269 -39 267 0
-269 -40 268 0
-269 -41 270 0
-269 -42 271 0
-269 -43 272 0
-269 -44 273 0
-269 -45 274 0
-269 -46 275 0
-269 -47 276 0
-269 -48 277 0
-269 -49 278 0
-269 -50 279 0
-269 -51 280 0
-269 -53 281 0
-269 -54 282 0
-269 -55 283 0
-269 -56 284 0
-269 -57 285 0
-270 -58 267 0
-270 -59 268 0
-270 -60 269 0
-270 -61 271 0
-270 -62 272 0
-270 -63 273 0
-270 -64 274 0
-270 -65 275 0
-270 -66 276 0
-270 -67 277 0
-270 -68 278 0
-270 -69 279 0
-270 -70 280 0
-270 -72 281 0
-270 -73 282 0
-270 -74 283 0
-270 -75 284 0
-270 -76 285 0
-271 -77 267 0
-271 -78 268 0
-271 -79 269 0
-271 -80 270 0
-271 -81 272 0
-271 -82 273 0
-271 -83 274 0
-271 -84 275 0
-271 -85 276 0
-271 -86 277 0
-271 -87 278 0
-271 -88 279 0
-271 -89 280 0
-271 -91 281 0
-271 -92 282 0
-271 -93 283 0
-271 -94 284 0
-271 -95 285 0
-272 -96 267 0
-272 -97 268 0
-272 -98 269 0
-272 -99 270 0
-272 -100 271 0
-272 -101 273 0
-272 -102 274 0
-272 -103 275 0
-272 -104 276 0
-272 -105 277 0
-272 -106 278 0
-272 -107 279 0
-272 -108 280 0
-272 -110 281 0
-272 -111 282 0
-272 -112 283 0
-272 -113 284 0
-272 -114 285 0
-273 -115 267 0
-273 -116 268 0
-273 -117 269 0
-273 -118 270 0
-273 -119 271 0
-273 -120 272 0
-273 -121 274 0
-273 -122 275 0
-273 -123 276 0
-273 -124 277 0
-273 -125 278 0
-273 -126 279 0
-273 -127 280 0
-273 -129 281 0
-273 -130 282 0
-273 -131 283 0
-273 -132 284 0
-273 -133 285 0
-274 -134 267 0
-274 -135 268 0
-274 -136 269 0
-274 -137 270 0
-274 -138 271 0
-274 -139 272 0
-274 -140 273 0
-274 -141 275 0
-274 -142 276 0
-274 -143 277 0
-274 -144 278 0
-274 -145 279 0
-274 -146 280 0
-274 -148 281 0
-274 -149 282 0
-274 -150 283 0
-274 -151 284 0
-274 -152 285 0
-275 -153 267 0
-275 -154 268 0
-275 -155 269 0
-275 -156 270 0
-275 -157 271 0
-275 -158 272 0
-275 -159 273 0
-275 -160 274 0
-275 -161 276 0
-275 -162 277 0
-275 -163 278 0
-275 -164 279 0
-275 -165 280 0
-275 -167 281 0
-275 -168 282 0
-275 -169 283 0
-275 -170 284 0
-275 -171 285 0
-276 -172 267 0
-276 -173 268 0
-276 -174 269 0
-276 -175 270 0
-276 -176 271 0
-276 -177 272 0
-276 -178 273 0
-276 -179 274 0
-276 -180 275 0
-276 -181 277 0
-276 -182 278 0
-276 -183 279 0
-276 -184 280 0
-276 -186 281 0
-276 -187 282 0
-276 -188 283 0
-276 -189 284 0
-276 -190 285 0
-277 -191 267 0
-277 -192 268 0
-277 -193 269 0
-277 -194 270 0
-277 -195 271 0
-277 -196 272 0
-277 -197 273 0
-277 -198 274 0
-277 -199 275 0
-277 -200 276 0
-277 -201 278 0
-277 -202 279 0
-277 -203 280 0
-277 -205 281 0
-277 -206 282 0
-277 -207 283 0
-277 -208 284 0
-277 -209 285 0
-278 -210 267 0
-278 -211 268 0
-278 -212 269 0
-278 -213 270 0
-278 -214 271 0
-278 -215 272 0
-278 -216 273 0
-278 -217 274 0
-278 -218 275 0
-278 -219 276 0
-278 -220 277 0
-278 -221 279 0
-278 -222 280 0
-278 -224 281 0
-278 -225 282 0
-278 -226 283 0
-278 -227 284 0
-278 -228 285 0
-279 -229 267 0
-279 -230 268 0
-279 -231 269 0
-279 -232 270 0
-279 -233 271 0
-279 -234 272 0
-279 -235 273 0
-279 -236 274 0
-279 -237 275 0
-279 -238 276 0
-279 -239 277 0
-279 -240 278 0
-279 -241 280 0
-279 -243 281 0
-279 -244 282 0
-279 -245 283 0
-279 -246 284 0
-279 -247 285 0
-280 -248 267 0
-280 -249 268 0
-280 -250 269 0
-280 -251 270 0
-280 -252 271 0
-280 -253 272 0
-280 -254 273 0
-280 -255 274 0
-280 -256 275 0
-280 -257 276 0
-280 -258 277 0
-280 -259 278 0
-280 -260 279 0
-280 -262 281 0
-280 -263 282 0
-280 -264 283 0
-280 -265 284 0
-280 -266 285 0
-281 -286 267 0
-281 -287 268 0
-281 -288 269 0
-281 -289 270 0
-281 -290 271 0
-281 -291 272 0
-281 -292 273 0
-281 -293 274 0
-281 -294 275 0
-281 -295 276 0
-281 -296 277 0
-281 -297 278 0
-281 -298 279 0
-281 -299 280 0
-281 -301 282 0
-281 -302 283 0
-281 -303 284 0
-281 -304 285 0
-282 -305 267 0
-282 -306 268 0
-282 -307 269 0
-282 -308 270 0
-282 -309 271 0
-282 -310 272 0
-282 -311 273 0
-282 -312 274 0
-282 -313 275 0
-282 -314 276 0
-282 -315 277 0
-282 -316 278 0
-282 -317 279 0
-282 -318 280 0
-282 -320 281 0
-282 -321 283 0
-282 -322 284 0
-282 -323 285 0
-283 -324 267 0
-283 -325 268 0
-283 -326 269 0
-283 -327 270 0
-283 -328 271 0
-283 -329 272 0
-283 -330 273 0
-283 -331 274 0
-283 -332 275 0
-283 -333 276 0
-283 -334 277 0
-283 -335 278 0
-283 -336 279 0
-283 -337 280 0
-283 -339 281 0
-283 -340 282 0
-283 -341 284 0
-283 -342 285 0
-284 -343 267 0
-284 -344 268 0
-284 -345 269 0
-284 -346 270 0
-284 -347 271 0
-284 -348 272 0
-284 -349 273 0
-284 -350 274 0
-284 -351 275 0
-284 -352 276 0
-284 -353 277 0
-284 -354 278 0
-284 -355 279 0
-284 -356 280 0
-284 -358 281 0
-284 -359 282 0
-284 -360 283 0
-284 -361 285 0
-285 -362 267 0
-285 -363 268 0
-285 -364 269 0
-285 -365 270 0
-285 -366 271 0
-285 -367 272 0
-285 -368 273 0
-285 -369 274 0
-285 -370 275 0
-285 -371 276 0
-285 -372 277 0
-285 -373 278 0
-285 -374 279 0
-285 -375 280 0
-285 -377 281 0
-285 -378 282 0
-285 -379 283 0
-285 -380 284 0
-286 -1 287 0
-286 -2 288 0
-286 -3 289 0
-286 -4 290 0
-286 -5 291 0
-286 -6 292 0
-286 -7 293 0
-286 -8 294 0
-286 -9 295 0
-286 -10 296 0
-286 -11 297 0
-286 -12 298 0
-286 -13 299 0
-286 -14 300 0
-286 -16 301 0
-286 -17 302 0
-286 -18 303 0
-286 -19 304 0
-287 -20 286 0
-287 -21 288 0
-287 -22 289 0
-287 -23 290 0
-287 -24 291 0
-287 -25 292 0
-287 -26 293 0
-287 -27 294 0
-287 -28 295 0
-287 -29 296 0
-287 -30 297 0
-287 -31 298 0
-287 -32 299 0
-287 -33 300 0
-287 -35 301 0
-287 -36 302 0
-287 -37 303 0
-287 -38 304 0
-288 -39 286 0
-288 -40 287 0
-288 -41 289 0
-288 -42 290 0
-288 -43 291 0
-288 -44 292 0
-288 -45 293 0
-288 -46 294 0
-288 -47 295 0
-288 -48 296 0
-288 -49 297 0
-288 -50 298 0
-288 -51 299 0
-288 -52 300 0
-288 -54 301 0
-288 -55 302 0
-288 -56 303 0
-288 -57 304 0
-289 -58 286 0
-289 -59 287 0
-289 -60 288 0
-289 -61 290 0
-289 -62 291 0
-289 -63 292 0
-289 -64 293 0
-289 -65 294 0
-289 -66 295 0
-289 -67 296 0
-289 -68 297 0
-289 -69 298 0
-289 -70 299 0
-289 -71 300 0
-289 -73 301 0
-289 -74 302 0
-289 -75 303 0
-289 -76 304 0
-290 -77 286 0
-290 -78 287 0
-290 -79 288 0
-290 -80 289 0
-290 -81 291 0
-290 -82 292 0
-290 -83 293 0
-290 -84 294 0
-290 -85 295 0
-290 -86 296 0
-290 -87 297 0
-290 -88 298 0
-290 -89 299 0
-290 -90 300 0
-290 -92 301 0
-290 -93 302 0
-290 -94 303 0
-290 -95 304 0
-291 -96 286 0
-291 -97 287 0
-291 -98 288 0
-291 -99 289 0
-291 -100 290 0
-291 -101 292 0
-291 -102 293 0
-291 -103 294 0
-291 -104 295 0
-291 -105 296 0
-291 -106 297 0
-291 -107 298 0
-291 -108 299 0
-291 -109 300 0
-291 -111 301 0
-291 -112 302 0
-291 -113 303 0
-291 -114 304 0
-292 -115 286 0
-292 -116 287 0
-292 -117 288 0
-292 -118 289 0
-292 -119 290 0
-292 -120 291 0
-292 -121 293 0
-292 -122 294 0
-292 -123 295 0
-292 -124 296 0
-292 -125 297 0
-292 -126 298 0
-292 -127 299 0
-292 -128 300 0
-292 -130 301 0
-292 -131 302 0
-292 -132 303 0
-292 -133 304 0
-293 -134 286 0
-293 -135 287 0
-293 -136 288 0
-293 -137 289 0
-293 -138 290 0
-293 -139 291 0
-293 -140 292 0
-293 -141 294 0
-293 -142 295 0
-293 -143 296 0
-293 -144 297 0
-293 -145 298 0
-293 -146 299 0
-293 -147 300 0
-293 -149 301 0
-293 -150 302 0
-293 -151 303 0
-293 -152 304 0
-294 -153 286 0
-294 -154 287 0
-294 -155 288 0
-294 -156 289 0
-294 -157 290 0
-294 -158 291 0
-294 -159 292 0
-294 -160 293 0
-294 -161 295 0
-294 -162 296 0
-294 -163 297 0
-294 -164 298 0
-294 -165 299 0
-294 -166 300 0
-294 -168 301 0
-294 -169 302 0
-294 -170 303 0
-294 -171 304 0
-295 -172 286 0
-295 -173 287 0
-295 -174 288 0
-295 -175 289 0
-295 -176 290 0
-295 -177 291 0
-295 -178 292 0
-295 -179 293 0
-295 -180 294 0
-295 -181 296 0
-295 -182 297 0
-295 -183 298 0
-295 -184 299 0
-295 -185 300 0
-295 -187 301 0
-295 -188 302 0
-295 -189 303 0
-295 -190 304 0
-296 -191 286 0
-296 -192 287 0
-296 -193 288 0
-296 -194 289 0
-296 -195 290 0
-296 -196 291 0
-296 -197 292 0
-296 -198 293 0
-296 -199 294 0
-296 -200 295 0
-296 -201 297 0
-296 -202 298 0
-296 -203 299 0
-296 -204 300 0
-296 -206 301 0
-296 -207 302 0
-296 -208 303 0
-296 -209 304 0
-297 -210 286 0
-297 -211 287 0
-297 -212 288 0
-297 -213 289 0
-297 -214 290 0
-297 -215 291 0
-297 -216 292 0
-297 -217 293 0
-297 -218 294 0
-297 -219 295 0
-297 -220 296 0
-297 -221 298 0
-297 -222 299 0
-297 -223 300 0
-297 -225 301 0
-297 -226 302 0
-297 -227 303 0
-297 -228 304 0
-298 -229 286 0
-298 -230 287 0
-298 -231 288 0
-298 -232 289 0
-298 -233 290 0
-298 -234 291 0
-298 -235 292 0
-298 -236 293 0
-298 -237 294 0
-298 -238 295 0
-298 -239 296 0
-298 -240 297 0
-298 -241 299 0
-298 -242 300 0
-298 -244 301 0
-298 -245 302 0
-298 -246 303 0
-298 -247 304 0
-299 -248 286 0
-299 -249 287 0
-299 -250 288 0
-299 -251 289 0
-299 -252 290 0
-299 -253 291 0
-299 -254 292 0
-299 -255 293 0
-299 -256 294 0
-299 -257 295 0
-299 -258 296 0
-299 -259 297 0
-299 -260 298 0
-299 -261 300 0
-299 -263 301 0
-299 -264 302 0
-299 -265 303 0
-299 -266 304 0
-300 -267 286 0
-300 -268 287 0
-300 -269 288 0
-300 -270 289 0
-300 -271 290 0
-300 -272 291 0
-300 -273 292 0
-300 -274 293 0
-300 -275 294 0
-300 -276 295 0
-300 -277 296 0
-300 -278 297 0
-300 -279 298 0
-300 -280 299 0
-300 -282 301 0
-300 -283 302 0
-300 -284 303 0
-300 -285 304 0
-301 -305 286 0
-301 -306 287 0
-301 -307 288 0
-301 -308 289 0
-301 -309 290 0
-301 -310 291 0
-301 -311 292 0
-301 -312 293 0
-301 -313 294 0
-301 -314 295 0
-301 -315 296 0
-301 -316 297 0
-301 -317 298 0
-301 -318 299 0
-301 -319 300 0
-301 -321 302 0
-301 -322 303 0
-301 -323 304 0
-302 -324 286 0
-302 -325 287 0
-302 -326 288 0
-302 -327 289 0
-302 -328 290 0
-302 -329 291 0
-302 -330 292 0
-302 -331 293 0
-302 -332 294 0
-302 -333 295 0
-302 -334 296 0
-302 -335 297 0
-302 -336 298 0
-302 -337 299 0
-302 -338 300 0
-302 -340 301 0
-302 -341 303 0
-302 -342 304 0
-303 -343 286 0
-303 -344 287 0
-303 -345 288 0
-303 -346 289 0
-303 -347 290 0
-303 -348 291 0
-303 -349 292 0
-303 -350 293 0
-303 -351 294 0
-303 -352 295 0
-303 -353 296 0
-303 -354 297 0
-303 -355 298 0
-303 -356 299 0
-303 -357 300 0
-303 -359 301 0
-303 -360 302 0
-303 -361 304 0
-304 -362 286 0
-304 -363 287 0
-304 -364 288 0
-304 -365 289 0
-304 -366 290 0
-304 -367 291 0
-304 -368 292 0
-304 -369 293 0
-304 -370 294 0
-304 -371 295 0
-304 -372 296 0
-304 -373 297 0
-304 -374 298 0
-304 -375 299 0
-304 -376 300 0
-304 -378 301 0
-304 -379 302 0
-304 -380 303 0
-305 -1 306 0
-305 -2 307 0
-305 -3 308 0
-305 -4 309 0
-305 -5 310 0
-305 -6 311 0
-305 -7 312 0
-305 -8 313 0
-305 -9 314 0
-305 -10 315 0
-305 -11 316 0
-305 -12 317 0
-305 -13 318 0
-305 -14 319 0
-305 -15 320 0
-305 -17 321 0
-305 -18 322 0
-305 -19 323 0
-306 -20 305 0
-306 -21 307 0
-306 -22 308 0
-306 -23 309 0
-306 -24 310 0
-306 -25 311 0
-306 -26 312 0
-306 -27 313 0
-306 -28 314 0
-306 -29 315 0
-306 -30 316 0
-306 -31 317 0
-306 -32 318 0
-306 -33 319 0
-306 -34 320 0
-306 -36 321 0
-306 -37 322 0
-306 -38 323 0
-307 -39 305 0
-307 -40 306 0
-307 -41 308 0
-307 -42 309 0
-307 -43 310 0
-307 -44 311 0
-307 -45 312 0
-307 -46 313 0
-307 -47 314 0
-307 -48 315 0
-307 -49 316 0
-307 -50 317 0
-307 -51 318 0
-307 -52 319 0
-307 -53 320 0
-307 -55 321 0
-307 -56 322 0
-307 -57 323 0
-308 -58 305 0
-308 -59 306 0
-308 -60 307 0
-308 -61 309 0
-308 -62 310 0
-308 -63 311 0
-308 -64 312 0
-308 -65 313 0
-308 -66 314 0
-308 -67 315 0
-308 -68 316 0
-308 -69 317 0
-308 -70 318 0
-308 -71 319 0
-308 -72 320 0
-308 -74 321 0
-308 -75 322 0
-308 -76 323 0
-309 -77 305 0
-309 -78 306 0
-309 -79 307 0
-309 -80 308 0
-309 -81 310 0
-309 -82 311 0
-309 -83 312 0
-309 -84 313 0
-309 -85 314 0
-309 -86 315 0
-309 -87 316 0
-309 -88 317 0
-309 -89 318 0
-309 -90 319 0
-309 -91 320 0
-309 -93 321 0
-309 -94 322 0
-309 -95 323 0
-310 -96 305 0
-310 -97 306 0
-310 -98 307 0
-310 -99 308 0
-310 -100 309 0
-310 -101 311 0
-310 -102 312 0
-310 -103 313 0
-310 -104 314 0
-310 -105 315 0
-310 -106 316 0
-310 -107 317 0
-310 -108 318 0
-310 -109 319 0
-310 -110 320 0
-310 -112 321 0
-310 -113 322 0
-310 -114 323 0
-311 -115 305 0
-311 -116 306 0
-311 -117 307 0
-311 -118 308 0
-311 -119 309 0
-311 -120 310 0
-311 -121 312 0
-311 -122 313 0
-311 -123 314 0
-311 -124 315 0
-311 -125 316 0
-311 -126 317 0
-311 -127 318 0
-311 -128 319 0
-311 -129 320 0
-311 -131 321 0
-311 -132 322 0
-311 -133 323 0
-312 -134 305 0
-312 -135 306 0
-312 -136 307 0
-312 -137 308 0
-312 -138 309 0
-312 -139 310 0
-312 -140 311 0
-312 -141 313 0
-312 -142 314 0
-312 -143 315 0
-312 -144 316 0
-312 -145 317 0
-312 -146 318 0
-312 -147 319 0
-312 -148 320 0
-312 -150 321 0
-312 -151 322 0
-312 -152 323 0
-313 -153 305 0
-313 -154 306 0
-313 -155 307 0
-313 -156 308 0
-313 -157 309 0
-313 -158 310 0
-313 -159 311 0
-313 -160 312 0
-313 -161 314 0
-313 -162 315 0
-313 -163 316 0
-313 -164 317 0
-313 -165 318 0
-313 -166 319 0
-313 -167 320 0
-313 -169 321 0
-313 -170 322 0
-313 -171 323 0
-314 -172 305 0
-314 -173 306 0
-314 -174 307 0
-314 -175 308 0
-314 -176 309 0
-314 -177 310 0
-314 -178 311 0
-314 -179 312 0
-314 -180 313 0
-314 -181 315 0
-314 -182 316 0
-314 -183 317 0
-314 -184 318 0
-314 -185 319 0
-314 -186 320 0
-314 -188 321 0
-314 -189 322 0
-314 -190 323 0
-315 -191 305 0
-315 -192 306 0
-315 -193 307 0
-315 -194 308 0
-315 -195 309 0
-315 -196 310 0
-315 -197 311 0
-315 -198 312 0
-315 -199 313 0
-315 -200 314 0
-315 -201 316 0
-315 -202 317 0
-315 -203 318 0
-315 -204 319 0
-315 -205 320 0
-315 -207 321 0
-315 -208 322 0
-315 -209 323 0
-316 -210 305 0
-316 -211 306 0
-316 -212 307 0
-316 -213 308 0
-316 -214 309 0
-316 -215 310 0
-316 -216 311 0
-316 -217 312 0
-316 -218 313 0
-316 -219 314 0
-316 -220 315 0
-316 -221 317 0
-316 -222 318 0
-316 -223 319 0
-316 -224 320 0
-316 -226 321 0
-316 -227 322 0
-316 -228 323 0
-317 -229 305 0
-317 -230 306 0
-317 -231 307 0
-317 -232 308 0
-317 -233 309 0
-317 -234 310 0
-317 -235 311 0
-317 -236 312 0
-317 -237 313 0
-317 -238 314 0
-317 -239 315 0
-317 -240 316 0
-317 -241 318 0
-317 -242 319 0
-317 -243 320 0
-317 -245 321 0
-317 -246 322 0
-317 -247 323 0
-318 -248 305 0
-318 -249 306 0
-318 -250 307 0
-318 -251 308 0
-318 -252 309 0
-318 -253 310 0
-318 -254 311 0
-318 -255 312 0
-318 -256 313 0
-318 -257 314 0
-318 -258 315 0
-318 -259 316 0
-318 -260 317 0
-318 -261 319 0
-318 -262 320 0
-318 -264 321 0
-318 -265 322 0
-318 -266 323 0
-319 -267 305 0
-319 -268 306 0
-319 -269 307 0
-319 -270 308 0
-319 -271 309 0
-319 -272 310 0
-319 -273 311 0
-319 -274 312 0
-319 -275 313 0
-319 -276 314 0
-319 -277 315 0
-319 -278 316 0
-319 -279 317 0
-319 -280 318 0
-319 -281 320 0
-319 -283 321 0
-319 -284 322 0
-319 -285 323 0
-320 -286 305 0
-320 -287 306 0
-320 -288 307 0
-320 -289 308 0
-320 -290 309 0
-320 -291 310 0
-320 -292 311 0
-320 -293 312 0
-320 -294 313 0
-320 -295 314 0
-320 -296 315 0
-320 -297 316 0
-320 -298 317 0
-320 -299 318 0
-320 -300 319 0
-320 -302 321 0
-320 -303 322 0
-320 -304 323 0
-321 -324 305 0
-321 -325 306 0
-321 -326 307 0
-321 -327 308 0
-321 -328 309 0
-321 -329 310 0
-321 -330 311 0
-321 -331 312 0
-321 -332 313 0
-321 -333 314 0
-321 -334 315 0
-321 -335 316 0
-321 -336 317 0
-321 -337 318 0
-321 -338 319 0
-321 -339 320 0
-321 -341 322 0
-321 -342 323 0
-322 -343 305 0
-322 -344 306 0
-322 -345 307 0
-322 -346 308 0
-322 -347 309 0
-322 -348 310 0
-322 -349 311 0
-322 -350 312 0
-322 -351 313 0
-322 -352 314 0
-322 -353 315 0
-322 -354 316 0
-322 -355 317 0
-322 -356 318 0
-322 -357 319 0
-322 -358 320 0
-322 -360 321 0
-322 -361 323 0
-323 -362 305 0
-323 -363 306 0
-323 -364 307 0
-323 -365 308 0
-323 -366 309 0
-323 -367 310 0
-323 -368 311 0
-323 -369 312 0
-323 -370 313 0
-323 -371 314 0
-323 -372 315 0
-323 -373 316 0
-323 -374 317 0
-323 -375 318 0
-323 -376 319 0
-323 -377 320 0
-323 -379 321 0
-323 -380 322 0
-324 -1 325 0
-324 -2 326 0
-324 -3 327 0
-324 -4 328 0
-324 -5 329 0
-324 -6 330 0
-324 -7 331 0
-324 -8 332 0
-324 -9 333 0
-324 -10 334 0
-324 -11 335 0
-324 -12 336 0
-324 -13 337 0
-324 -14 338 0
-324 -15 339 0
-324 -16 340 0
-324 -18 341 0
-324 -19 342 0
-325 -20 324 0
-325 -21 326 0
-325 -22 327 0
-325 -23 328 0
-325 -24 329 0
-325 -25 330 0
-325 -26 331 0
-325 -27 332 0
-325 -28 333 0
-325 -29 334 0
-325 -30 335 0
-325 -31 336 0
-325 -32 337 0
-325 -33 338 0
-325 -34 339 0
-325 -35 340 0
-325 -37 341 0
-325 -38 342 0
-326 -39 324 0
-326 -40 325 0
-326 -41 327 0
-326 -42 328 0
-326 -43 329 0
-326 -44 330 0
-326 -45 331 0
-326 -46 332 0
-326 -47 333 0
-326 -48 334 0
-326 -49 335 0
-326 -50 336 0
-326 -51 337 0
-326 -52 338 0
-326 -53 339 0
-326 -54 340 0
-326 -56 341 0
-326 -57 342 0
-327 -58 324 0
-327 -59 325 0
-327 -60 326 0
-327 -61 328 0
-327 -62 329 0
-327 -63 330 0
-327 -64 331 0
-327 -65 332 0
-327 -66 333 0
-327 -67 334 0
-327 -68 335 0
-327 -69 336 0
-327 -70 337 0
-327 -71 338 0
-327 -72 339 0
-327 -73 340 0
-327 -75 341 0
-327 -76 342 0
-328 -77 324 0
-328 -78 325 0
-328 -79 326 0
-328 -80 327 0
-328 -81 329 0
-328 -82 330 0
-328 -83 331 0
-328 -84 332 0
-328 -85 333 0
-328 -86 334 0
-328 -87 335 0
-328 -88 336 0
-328 -89 337 0
-328 -90 338 0
-328 -91 339 0
-328 -92 340 0
-328 -94 341 0
-328 -95 342 0
-329 -96 324 0
-329 -97 325 0
-329 -98 326 0
-329 -99 327 0
-329 -100 328 0
-329 -101 330 0
-329 -102 331 0
-329 -103 332 0
-329 -104 333 0
-329 -105 334 0
-329 -106 335 0
-329 -107 336 0
-329 -108 337 0
-329 -109 338 0
-329 -110 339 0
-329 -111 340 0
-329 -113 341 0
-329 -114 342 0
-330 -115 324 0
-330 -116 325 0
-330 -117 326 0
-330 -118 327 0
-330 -119 328 0
-330 -120 329 0
-330 -121 331 0
-330 -122 332 0
-330 -123 333 0
-330 -124 334 0
-330 -125 335 0
-330 -126 336 0
-330 -127 337 0
-330 -128 338 0
-330 -129 339 0
-330 -130 340 0
-330 -132 341 0
-330 -133 342 0
-331 -134 324 0
-331 -135 325 0
-331 -136 326 0
-331 -137 327 0
-331 -138 328 0
-331 -139 329 0
-331 -140 330 0
-331 -141 332 0
-331 -142 333 0
-331 -143 334 0
-331 -144 335 0
-331 -145 336 0
-331 -146 337 0
-331 -147 338 0
-331 -148 339 0
-331 -149 340 0
-331 -151 341 0
-331 -152 342 0
-332 -153 324 0
-332 -154 325 0
-332 -155 326 0
-332 -156 327 0
-332 -157 328 0
-332 -158 329 0
-332 -159 330 0
-332 -160 331 0
-332 -161 333 0
-332 -162 334 0
-332 -163 335 0
-332 -164 336 0
-332 -165 337 0
-332 -166 338 0
-332 -167 339 0
-332 -168 340 0
-332 -170 341 0
-332 -171 342 0
-333 -172 324 0
-333 -173 325 0
-333 -174 326 0
-333 -175 327 0
-333 -176 328 0
-333 -177 329 0
-333 -178 330 0
-333 -179 331 0
-333 -180 332 0
-333 -181 334 0
-333 -182 335 0
-333 -183 336 0
-333 -184 337 0
-333 -185 338 0
-333 -186 339 0
-333 -187 340 0
-333 -189 341 0
-333 -190 342 0
-334 -191 324 0
-334 -192 325 0
-334 -193 326 0
-334 -194 327 0
-334 -195 328 0
-334 -196 329 0
-334 -197 330 0
-334 -198 331 0
-334 -199 332 0
-334 -200 333 0
-334 -201 335 0
-334 -202 336 0
-334 -203 337 0
-334 -204 338 0
-334 -205 339 0
-334 -206 340 0
-334 -208 341 0
-334 -209 342 0
-335 -210 324 0
-335 -211 325 0
-335 -212 326 0
-335 -213 327 0
-335 -214 328 0
-335 -215 329 0
-335 -216 330 0
-335 -217 331 0
-335 -218 332 0
-335 -219 333 0
-335 -220 334 0
-335 -221 336 0
-335 -222 337 0
-335 -223 338 0
-335 -224 339 0
-335 -225 340 0
-335 -227 341 0
-335 -228 342 0
-336 -229 324 0
-336 -230 325 0
-336 -231 326 0
-336 -232 327 0
-336 -233 328 0
-336 -234 329 0
-336 -235 330 0
-336 -236 331 0
-336 -237 332 0
-336 -238 333 0
-336 -239 334 0
-336 -240 335 0
-336 -241 337 0
-336 -242 338 0
-336 -243 339 0
-336 -244 340 0
-336 -246 341 0
-336 -247 342 0
-337 -248 324 0
-337 -249 325 0
-337 -250 326 0
-337 -251 327 0
-337 -252 328 0
-337 -253 329 0
-337 -254 330 0
-337 -255 331 0
-337 -256 332 0
-337 -257 333 0
-337 -258 334 0
-337 -259 335 0
-337 -260 336 0
-337 -261 338 0
-337 -262 339 0
-337 -263 340 0
-337 -265 341 0
-337 -266 342 0
-338 -267 324 0
-338 -268 325 0
-338 -269 326 0
-338 -270 327 0
-338 -271 328 0
-338 -272 329 0
-338 -273 330 0
-338 -274 331 0
-338 -275 332 0
-338 -276 333 0
-338 -277 334 0
-338 -278 335 0
-338 -279 336 0
-338 -280 337 0
-338 -281 339 0
-338 -282 340 0
-338 -284 341 0
-338 -285 342 0
-339 -286 324 0
-339 -287 325 0
-339 -288 326 0
-339 -289 327 0
-339 -290 328 0
-339 -291 329 0
-339 -292 330 0
-339 -293 331 0
-339 -294 332 0
-339 -295 333 0
-339 -296 334 0
-339 -297 335 0
-339 -298 336 0
-339 -299 337 0
-339 -300 338 0
-339 -301 340 0
-339 -303 341 0
-339 -304 342 0
-340 -305 324 0
-340 -306 325 0
-340 -307 326 0
-340 -308 327 0
-340 -309 328 0
-340 -310 329 0
-340 -311 330 0
-340 -312 331 0
-340 -313 332 0
-340 -314 333 0
-340 -315 334 0
-340 -316 335 0
-340 -317 336 0
-340 -318 337 0
-340 -319 338 0
-340 -320 339 0
-340 -322 341 0
-340 -323 342 0
-341 -343 324 0
-341 -344 325 0
-341 -345 326 0
-341 -346 327 0
-341 -347 328 0
-341 -348 329 0
-341 -349 330 0
-341 -350 331 0
-341 -351 332 0
-341 -352 333 0
-341 -353 334 0
-341 -354 335 0
-341 -355 336 0
-341 -356 337 0
-341 -357 338 0
-341 -358 339 0
-341 -359 340 0
-341 -361 342 0
-342 -362 324 0
-342 -363 325 0
-342 -364 326 0
-342 -365 327 0
-342 -366 328 0
-342 -367 329 0
-342 -368 330 0
-342 -369 331 0
-342 -370 332 0
-342 -371 333 0
-342 -372 334 0
-342 -373 335 0
-342 -374 336 0
-342 -375 337 0
-342 -376 338 0
-342 -377 339 0
-342 -378 340 0
-342 -380 341 0
-343 -1 344 0
-343 -2 345 0
-343 -3 346 0
-343 -4 347 0
-343 -5 348 0
-343 -6 349 0
-343 -7 350 0
-343 -8 351 0
-343 -9 352 0
-343 -10 353 0
-343 -11 354 0
-343 -12 355 0
-343 -13 356 0
-343 -14 357 0
-343 -15 358 0
-343 -16 359 0
-343 -17 360 0
-343 -19 361 0
-344 -20 343 0
-344 -21 345 0
-344 -22 346 0
-344 -23 347 0
-344 -24 348 0
-344 -25 349 0
-344 -26 350 0
-344 -27 351 0
-344 -28 352 0
-344 -29 353 0
-344 -30 354 0
-344 -31 355 0
-344 -32 356 0
-344 -33 357 0
-344 -34 358 0
-344 -35 359 0
-344 -36 360 0
-344 -38 361 0
-345 -39 343 0
-345 -40 344 0
-345 -41 346 0
-345 -42 347 0
-345 -43 348 0
-345 -44 349 0
-345 -45 350 0
-345 -46 351 0
-345 -47 352 0
-345 -48 353 0
-345 -49 354 0
-345 -50 355 0
-345 -51 356 0
-345 -52 357 0
-345 -53 358 0
-345 -54 359 0
-345 -55 360 0
-345 -57 361 0
-346 -58 343 0
-346 -59 344 0
-346 -60 345 0
-346 -61 347 0
-346 -62 348 0
-346 -63 349 0
-346 -64 350 0
-346 -65 351 0
-346 -66 352 0
-346 -67 353 0
-346 -68 354 0
-346 -69 355 0
-346 -70 356 0
-346 -71 357 0
-346 -72 358 0
-346 -73 359 0
-346 -74 360 0
-346 -76 361 0
-347 -77 343 0
-347 -78 344 0
-347 -79 345 0
-347 -80 346 0
-347 -81 348 0
-347 -82 349 0
-347 -83 350 0
-347 -84 351 0
-347 -85 352 0
-347 -86 353 0
-347 -87 354 0
-347 -88 355 0
-347 -89 356 0
-347 -90 357 0
-347 -91 358 0
-347 -92 359 0
-347 -93 360 0
-347 -95 361 0
-348 -96 343 0
-348 -97 344 0
-348 -98 345 0
-348 -99 346 0
-348 -100 347 0
-348 -101 349 0
-348 -102 350 0
-348 -103 351 0
-348 -104 352 0
-348 -105 353 0
-348 -106 354 0
-348 -107 355 0
-348 -108 356 0
-348 -109 357 0
-348 -110 358 0
-348 -111 359 0
-348 -112 360 0
-348 -114 361 0
-349 -115 343 0
-349 -116 344 0
-349 -117 345 0
-349 -118 346 0
-349 -119 347 0
-349 -120 348 0
-349 -121 350 0
-349 -122 351 0
-349 -123 352 0
-349 -124 353 0
-349 -125 354 0
-349 -126 355 0
-349 -127 356 0
-349 -128 357 0
-349 -129 358 0
-349 -130 359 0
-349 -131 360 0
-349 -133 361 0
-350 -134 343 0
-350 -135 344 0
-350 -136 345 0
-350 -137 346 0
-350 -138 347 0
-350 -139 348 0
-350 -140 349 0
-350 -141 351 0
-350 -142 352 0
-350 -143 353 0
-350 -144 354 0
-350 -145 355 0
-350 -146 356 0
-350 -147 357 0
-350 -148 358 0
-350 -149 359 0
-350 -150 360 0
-350 -152 361 0
-351 -153 343 0
-351 -154 344 0
-351 -155 345 0
-351 -156 346 0
-351 -157 347 0
-351 -158 348 0
-351 -159 349 0
-351 -160 350 0
-351 -161 352 0
-351 -162 353 0
-351 -163 354 0
-351 -164 355 0
-351 -165 356 0
-351 -166 357 0
-351 -167 358 0
-351 -168 359 0
-351 -169 360 0
-351 -171 361 0
-352 -172 343 0
-352 -173 344 0
-352 -174 345 0
-352 -175 346 0
-352 -176 347 0
-352 -177 348 0
-352 -178 349 0
-352 -179 350 0
-352 -180 351 0
-352 -181 353 0
-352 -182 354 0
-352 -183 355 0
-352 -184 356 0
-352 -185 357 0
-352 -186 358 0
-352 -187 359 0
-352 -188 360 0
-352 -190 361 0
-353 -191 343 0
-353 -192 344 0
-353 -193 345 0
-353 -194 346 0
-353 -195 347 0
-353 -196 348 0
-353 -197 349 0
-353 -198 350 0
-353 -199 351 0
-353 -200 352 0
-353 -201 354 0
-353 -202 355 0
-353 -203 356 0
-353 -204 357 0
-353 -205 358 0
-353 -206 359 0
-353 -207 360 0
-353 -209 361 0
-354 -210 343 0
-354 -211 344 0
-354 -212 345 0
-354 -213 346 0
-354 -214 347 0
-354 -215 348 0
-354 -216 349 0
-354 -217 350 0
-354 -218 351 0
-354 -219 352 0
-354 -220 353 0
-354 -221 355 0
-354 -222 356 0
-354 -223 357 0
-354 -224 358 0
-354 -225 359 0
-354 -226 360 0
-354 -228 361 0
-355 -229 343 0
-355 -230 344 0
-355 -231 345 0
-355 -232 346 0
-355 -233 347 0
-355 -234 348 0
-355 -235 349 0
-355 -236 350 0
-355 -237 351 0
-355 -238 352 0
-355 -239 353 0
-355 -240 354 0
-355 -241 356 0
-355 -242 357 0
-355 -243 358 0
-355 -244 359 0
-355 -245 360 0
-355 -247 361 0
-356 -248 343 0
-356 -249 344 0
-356 -250 345 0
-356 -251 346 0
-356 -252 347 0
-356 -253 348 0
-356 -254 349 0
-356 -255 350 0
-356 -256 351 0
-356 -257 352 0
-356 -258 353 0
-356 -259 354 0
-356 -260 355 0
-356 -261 357 0
-356 -262 358 0
-356 -263 359 0
-356 -264 360 0
-356 -266 361 0
-357 -267 343 0
-357 -268 344 0
-357 -269 345 0
-357 -270 346 0
-357 -271 347 0
-357 -272 348 0
-357 -273 349 0
-357 -274 350 0
-357 -275 351 0
-357 -276 352 0
-357 -277 353 0
-357 -278 354 0
-357 -279 355 0
-357 -280 356 0
-357 -281 358 0
-357 -282 359 0
-357 -283 360 0
-357 -285 361 0
-358 -286 343 0
-358 -287 344 0
-358 -288 345 0
-358 -289 346 0
-358 -290 347 0
-358 -291 348 0
-358 -292 349 0
-358 -293 350 0
-358 -294 351 0
-358 -295 352 0
-358 -296 353 0
-358 -297 354 0
-358 -298 355 0
-358 -299 356 0
-358 -300 357 0
-358 -301 359 0
-358 -302 360 0
-358 -304 361 0
-359 -305 343 0
-359 -306 344 0
-359 -307 345 0
-359 -308 346 0
-359 -309 347 0
-359 -310 348 0
-359 -311 349 0
-359 -312 350 0
-359 -313 351 0
-359 -314 352 0
-359 -315 353 0
-359 -316 354 0
-359 -317 355 0
-359 -318 356 0
-359 -319 357 0
-359 -320 358 0
-359 -321 360 0
-359 -323 361 0
-360 -324 343 0
-360 -325 344 0
-360 -326 345 0
-360 -327 346 0
-360 -328 347 0
-360 -329 348 0
-360 -330 349 0
-360 -331 350 0
-360 -332 351 0
-360 -333 352 0
-360 -334 353 0
-360 -335 354 0
-360 -336 355 0
-360 -337 356 0
-360 -338 357 0
-360 -339 358 0
-360 -340 359 0
-360 -342 361 0
-361 -362 343 0
-361 -363 344 0
-361 -364 345 0
-361 -365 346 0
-361 -366 347 0
-361 -367 348 0
-361 -368 349 0
-361 -369 350 0
-361 -370 351 0
-361 -371 352 0
-361 -372 353 0
-361 -373 354 0
-361 -374 355 0
-361 -375 356 0
-361 -376 357 0
-361 -377 358 0
-361 -378 359 0
-361 -379 360 0
-362 -1 363 0
-362 -2 364 0
-362 -3 365 0
-362 -4 366 0
-362 -5 367 0
-362 -6 368 0
-362 -7 369 0
-362 -8 370 0
-362 -9 371 0
-362 -10 372 0
-362 -11 373 0
-362 -12 374 0
-362 -13 375 0
-362 -14 376 0
-362 -15 377 0
-362 -16 378 0
-362 -17 379 0
-362 -18 380 0
-363 -20 362 0
-363 -21 364 0
-363 -22 365 0
-363 -23 366 0
-363 -24 367 0
-363 -25 368 0
-363 -26 369 0
-363 -27 370 0
-363 -28 371 0
-363 -29 372 0
-363 -30 373 0
-363 -31 374 0
-363 -32 375 0
-363 -33 376 0
-363 -34 377 0
-363 -35 378 0
-363 -36 379 0
-363 -37 380 0
-364 -39 362 0
-364 -40 363 0
-364 -41 365 0
-364 -42 366 0
-364 -43 367 0
-364 -44 368 0
-364 -45 369 0
-364 -46 370 0
-364 -47 371 0
-364 -48 372 0
-364 -49 373 0
-364 -50 374 0
-364 -51 375 0
-364 -52 376 0
-364 -53 377 0
-364 -54 378 0
-364 -55 379 0
-364 -56 380 0
-365 -58 362 0
-365 -59 363 0
-365 -60 364 0
-365 -61 366 0
-365 -62 367 0
-365 -63 368 0
-365 -64 369 0
-365 -65 370 0
-365 -66 371 0
-365 -67 372 0
-365 -68 373 0
-365 -69 374 0
-365 -70 375 0
-365 -71 376 0
-365 -72 377 0
-365 -73 378 0
-365 -74 379 0
-365 -75 380 0
-366 -77 362 0
-366 -78 363 0
-366 -79 364 0
-366 -80 365 0
-366 -81 367 0
-366 -82 368 0
-366 -83 369 0
-366 -84 370 0
-366 -85 371 0
-366 -86 372 0
-366 -87 373 0
-366 -88 374 0
-366 -89 375 0
-366 -90 376 0
-366 -91 377 0
-366 -92 378 0
-366 -93 379 0
-366 -94 380 0
-367 -96 362 0
-367 -97 363 0
-367 -98 364 0
-367 -99 365 0
-367 -100 366 0
-367 -101 368 0
-367 -102 369 0
-367 -103 370 0
-367 -104 371 0
-367 -105 372 0
-367 -106 373 0
-367 -107 374 0
-367 -108 375 0
-367 -109 376 0
-367 -110 377 0
-367 -111 378 0
-367 -112 379 0
-367 -113 380 0
-368 -115 362 0
-368 -116 363 0
-368 -117 364 0
-368 -118 365 0
-368 -119 366 0
-368 -120 367 0
-368 -121 369 0
-368 -122 370 0
-368 -123 371 0
-368 -124 372 0
-368 -125 373 0
-368 -126 374 0
-368 -127 375 0
-368 -128 376 0
-368 -129 377 0
-368 -130 378 0
-368 -131 379 0
-368 -132 380 0
-369 -134 362 0
-369 -135 363 0
-369 -136 364 0
-369 -137 365 0
-369 -138 366 0
-369 -139 367 0
-369 -140 368 0
-369 -141 370 0
-369 -142 371 0
-369 -143 372 0
-369 -144 373 0
-369 -145 374 0
-369 -146 375 0
-369 -147 376 0
-369 -148 377 0
-369 -149 378 0
-369 -150 379 0
-369 -151 380 0
-370 -153 362 0
-370 -154 363 0
-370 -155 364 0
-370 -156 365 0
-370 -157 366 0
-370 -158 367 0
-370 -159 368 0
-370 -160 369 0
-370 -161 371 0
-370 -162 372 0
-370 -163 373 0
-370 -164 374 0
-370 -165 375 0
-370 -166 376 0
-370 -167 377 0
-370 -168 378 0
-370 -169 379 0
-370 -170 380 0
-371 -172 362 0
-371 -173 363 0
-371 -174 364 0
-371 -175 365 0
-371 -176 366 0
-371 -177 367 0
-371 -178 368 0
-371 -179 369 0
-371 -180 370 0
-371 -181 372 0
-371 -182 373 0
-371 -183 374 0
-371 -184 375 0
-371 -185 376 0
-371 -186 377 0
-371 -187 378 0
-371 -188 379 0
-371 -189 380 0
-372 -191 362 0
-372 -192 363 0
-372 -193 364 0
-372 -194 365 0
-372 -195 366 0
-372 -196 367 0
-372 -197 368 0
-372 -198 369 0
-372 -199 370 0
-372 -200 371 0
-372 -201 373 0
-372 -202 374 0
-372 -203 375 0
-372 -204 376 0
-372 -205 377 0
-372 -206 378 0
-372 -207 379 0
-372 -208 380 0
-373 -210 362 0
-373 -211 363 0
-373 -212 364 0
-373 -213 365 0
-373 -214 366 0
-373 -215 367 0
-373 -216 368 0
-373 -217 369 0
-373 -218 370 0
-373 -219 371 0
-373 -220 372 0
-373 -221 374 0
-373 -222 375 0
-373 -223 376 0
-373 -224 377 0
-373 -225 378 0
-373 -226 379 0
-373 -227 380 0
-374 -229 362 0
-374 -230 363 0
-374 -231 364 0
-374 -232 365 0
-374 -233 366 0
-374 -234 367 0
-374 -235 368 0
-374 -236 369 0
-374 -237 370 0
-374 -238 371 0
-374 -239 372 0
-374 -240 373 0
-374 -241 375 0
-374 -242 376 0
-374 -243 377 0
-374 -244 378 0
-374 -245 379 0
-374 -246 380 0
-375 -248 362 0
-375 -249 363 0
-375 -250 364 0
-375 -251 365 0
-375 -252 366 0
-375 -253 367 0
-375 -254 368 0
-375 -255 369 0
-375 -256 370 0
-375 -257 371 0
-375 -258 372 0
-375 -259 373 0
-375 -260 374 0
-375 -261 376 0
-375 -262 377 0
-375 -263 378 0
-375 -264 379 0
-375 -265 380 0
-376 -267 362 0
-376 -268 363 0
-376 -269 364 0
-376 -270 365 0
-376 -271 366 0
-376 -272 367 0
-376 -273 368 0
-376 -274 369 0
-376 -275 370 0
-376 -276 371 0
-376 -277 372 0
-376 -278 373 0
-376 -279 374 0
-376 -280 375 0
-376 -281 377 0
-376 -282 378 0
-376 -283 379 0
-376 -284 380 0
-377 -286 362 0
-377 -287 363 0
-377 -288 364 0
-377 -289 365 0
-377 -290 366 0
-377 -291 367 0
-377 -292 368 0
-377 -293 369 0
-377 -294 370 0
-377 -295 371 0
-377 -296 372 0
-377 -297 373 0
-377 -298 374 0
-377 -299 375 0
-377 -300 376 0
-377 -301 378 0
-377 -302 379 0
-377 -303 380 0
-378 -305 362 0
-378 -306 363 0
-378 -307 364 0
-378 -308 365 0
-378 -309 366 0
-378 -310 367 0
-378 -311 368 0
-378 -312 369 0
-378 -313 370 0
-378 -314 371 0
-378 -315 372 0
-378 -316 373 0
-378 -317 374 0
-378 -318 375 0
-378 -319 376 0
-378 -320 377 0
-378 -321 379 0
-378 -322 380 0
-379 -324 362 0
-379 -325 363 0
-379 -326 364 0
-379 -327 365 0
-379 -328 366 0
-379 -329 367 0
-379 -330 368 0
-379 -331 369 0
-379 -332 370 0
-379 -333 371 0
-379 -334 372 0
-379 -335 373 0
-379 -336 374 0
-379 -337 375 0
-379 -338 376 0
-379 -339 377 0
-379 -340 378 0
-379 -341 380 0
-380 -343 362 0
-380 -344 363 0
-380 -345 364 0
-380 -346 365 0
-380 -347 366 0
-380 -348 367 0
-380 -349 368 0
-380 -350 369 0
-380 -351 370 0
-380 -352 371 0
-380 -353 372 0
-380 -354 373 0
-380 -355 374 0
-380 -356 375 0
-380 -357 376 0
-380 -358 377 0
-380 -359 378 0
-380 -360 379 0
-1 -20 0
-2 -39 0
-3 -58 0
-4 -77 0
-5 -96 0
-6 -115 0
-7 -134 0
-8 -153 0
-9 -172 0
-10 -191 0
-11 -210 0
-12 -229 0
-13 -248 0
-14 -267 0
-15 -286 0
-16 -305 0
-17 -324 0
-18 -343 0
-19 -362 0
-21 -40 0
-22 -59 0
-23 -78 0
-24 -97 0
-25 -116 0
-26 -135 0
-27 -154 0
-28 -173 0
-29 -192 0
-30 -211 0
-31 -230 0
-32 -249 0
-33 -268 0
-34 -287 0
-35 -306 0
-36 -325 0
-37 -344 0
-38 -363 0
-41 -60 0
-42 -79 0
-43 -98 0
-44 -117 0
-45 -136 0
-46 -155 0
-47 -174 0
-48 -193 0
-49 -212 0
-50 -231 0
-51 -250 0
-52 -269 0
-53 -288 0
-54 -307 0
-55 -326 0
-56 -345 0
-57 -364 0
-61 -80 0
-62 -99 0
-63 -118 0
-64 -137 0
-65 -156 0
-66 -175 0
-67 -194 0
-68 -213 0
-69 -232 0
-70 -251 0
-71 -270 0
-72 -289 0
-73 -308 0
-74 -327 0
-75 -346 0
-76 -365 0
-81 -100 0
-82 -119 0
-83 -138 0
-84 -157 0
-85 -176 0
-86 -195 0
-87 -214 0
-88 -233 0
-89 -252 0
-90 -271 0
-91 -290 0
-92 -309 0
-93 -328 0
-94 -347 0
-95 -366 0
-101 -120 0
-102 -139 0
-103 -158 0
-104 -177 0
-105 -196 0
-106 -215 0
-107 -234 0
-108 -253 0
-109 -272 0
-110 -291 0
-111 -310 0
-112 -329 0
-113 -348 0
-114 -367 0
-121 -140 0
-122 -159 0
-123 -178 0
-124 -197 0
-125 -216 0
-126 -235 0
-127 -254 0
-128 -273 0
-129 -292 0
-130 -311 0
-131 -330 0
-132 -349 0
-133 -368 0
-141 -160 0
-142 -179 0
-143 -198 0
-144 -217 0
-145 -236 0
-146 -255 0
-147 -274 0
-148 -293 0
-149 -312 0
-150 -331 0
-151 -350 0
-152 -369 0
-161 -180 0
-162 -199 0
-163 -218 0
-164 -237 0
-165 -256 0
-166 -275 0
-167 -294 0
-168 -313 0
-169 -332 0
-170 -351 0
-171 -370 0
-181 -200 0
-182 -219 0
-183 -238 0
-184 -257 0
-185 -276 0
-186 -295 0
-187 -314 0
-188 -333 0
-189 -352 0
-190 -371 0
-201 -220 0
-202 -239 0
-203 -258 0
-204 -277 0
-205 -296 0
-206 -315 0
-207 -334 0
-208 -353 0
-209 -372 0
-221 -240 0
-222 -259 0
-223 -278 0
-224 -297 0
-225 -316 0
-226 -335 0
-227 -354 0
-228 -373 0
-241 -260 0
-242 -279 0
-243 -298 0
-244 -317 0
-245 -336 0
-246 -355 0
-247 -374 0
-261 -280 0
-262 -299 0
-263 -318 0
-264 -337 0
-265 -356 0
-266 -375 0
-281 -300 0
-282 -319 0
-283 -338 0
-284 -357 0
-285 -376 0
-301 -320 0
-302 -339 0
-303 -358 0
-304 -377 0
-321 -340 0
-322 -359 0
-323 -378 0
-341 -360 0
-342 -379 0
-361 -380 0
